# Residuals    
# Time         	p              	sigmaxx        	sigmaxy        	sigmayy        	sigmazz        
0.005          	3.07811080e-01	3.29434720e-01	1.00000000e+00	5.43772320e-01	0.00000000e+00
0.01           	1.98698740e-01	2.11155990e-01	4.51424770e-01	3.45470330e-01	0.00000000e+00
0.015          	4.96540110e-01	1.78981450e-01	2.61300860e-01	3.39389670e-01	0.00000000e+00
0.02           	2.42517790e-01	1.50171870e-01	1.84835180e-01	2.17845540e-01	0.00000000e+00
0.025          	1.41782440e-01	1.28306930e-01	1.42627250e-01	1.96060020e-01	0.00000000e+00
0.03           	1.89636430e-01	1.11575000e-01	1.15845880e-01	1.20278760e-01	0.00000000e+00
0.035          	1.92914730e-01	9.84623650e-02	9.74540050e-02	1.36816010e-01	0.00000000e+00
0.04           	6.70004790e-01	8.81370840e-02	8.40621190e-02	7.21868000e-02	0.00000000e+00
0.045          	1.13145900e-01	7.98338290e-02	7.38883070e-02	1.03467530e-01	0.00000000e+00
0.05           	1.57344830e-01	7.29266570e-02	6.59407080e-02	9.93720350e-02	0.00000000e+00
0.055          	5.24629640e-01	6.71179490e-02	5.95509250e-02	8.28123480e-02	0.00000000e+00
0.06           	2.25707620e-01	6.22136110e-02	5.43080610e-02	8.37311510e-02	0.00000000e+00
0.065          	2.20253530e-01	5.80208610e-02	4.99420290e-02	8.04319420e-02	0.00000000e+00
0.07           	3.86391120e-01	5.43936460e-02	4.62586130e-02	5.88759550e-02	0.00000000e+00
0.075          	1.33777270e-01	5.11899030e-02	4.30931130e-02	5.02121330e-02	0.00000000e+00
0.08           	1.94152180e-01	4.83535010e-02	4.03484070e-02	7.34559000e-02	0.00000000e+00
0.085          	1.83747870e-01	4.58273920e-02	3.79505880e-02	4.81308950e-02	0.00000000e+00
0.09           	2.21245760e-01	4.35729830e-02	3.58384020e-02	4.83490870e-02	0.00000000e+00
0.095          	1.40166340e-01	4.15487410e-02	3.39641090e-02	4.25524110e-02	0.00000000e+00
0.1            	1.33515430e-01	3.97211210e-02	3.22888590e-02	5.45529560e-02	0.00000000e+00
0.105          	1.05277440e-01	3.80472540e-02	3.07706370e-02	3.99485760e-02	0.00000000e+00
0.11           	2.96117710e-01	3.65170480e-02	2.93973530e-02	5.00301560e-02	0.00000000e+00
0.115          	5.78059880e-01	3.51167570e-02	2.81509140e-02	3.45731590e-02	0.00000000e+00
0.12           	3.82504010e-01	3.38194820e-02	2.70146520e-02	3.22492200e-02	0.00000000e+00
0.125          	2.29939200e-01	3.26212280e-02	2.59746820e-02	3.69525750e-02	0.00000000e+00
0.13           	3.16356590e-01	3.15132810e-02	2.50193430e-02	2.93080410e-02	0.00000000e+00
0.135          	2.37699090e-01	3.04857650e-02	2.41387750e-02	4.57795070e-02	0.00000000e+00
0.14           	2.65238430e-01	2.95301890e-02	2.33241920e-02	4.39925570e-02	0.00000000e+00
0.145          	1.20876400e-01	2.86344770e-02	2.25638870e-02	4.07780960e-02	0.00000000e+00
0.15           	1.77215310e-01	2.77917450e-02	2.18570060e-02	3.28770270e-02	0.00000000e+00
0.155          	1.34048930e-01	2.70024650e-02	2.11981460e-02	3.55422020e-02	0.00000000e+00
0.16           	1.91666850e-01	2.62616860e-02	2.05826070e-02	3.05643010e-02	0.00000000e+00
0.165          	2.31951330e-01	2.55650510e-02	2.00036440e-02	2.77835630e-02	0.00000000e+00
0.17           	1.55303620e-01	2.49067150e-02	1.94596730e-02	3.41783480e-02	0.00000000e+00
0.175          	1.32968560e-01	2.42805760e-02	1.89483310e-02	3.20275790e-02	0.00000000e+00
0.18           	3.53973450e-01	2.36887180e-02	1.84667870e-02	2.84178410e-02	0.00000000e+00
0.185          	1.84274970e-01	2.31283900e-02	1.80125290e-02	1.94357210e-02	0.00000000e+00
0.19           	2.86150310e-01	2.25971280e-02	1.75833190e-02	3.13367510e-02	0.00000000e+00
0.195          	3.04329670e-01	2.20927190e-02	1.71777570e-02	2.63949640e-02	0.00000000e+00
0.2            	1.83601860e-01	2.16104100e-02	1.67916970e-02	2.37164840e-02	0.00000000e+00
0.205          	2.66239060e-01	2.11485110e-02	1.64245310e-02	2.06957390e-02	0.00000000e+00
0.21           	1.76899630e-01	2.07083530e-02	1.60756920e-02	2.49921070e-02	0.00000000e+00
0.215          	1.77437020e-01	2.02884310e-02	1.57438540e-02	2.26017530e-02	0.00000000e+00
0.22           	1.90061940e-01	1.98873780e-02	1.54278140e-02	2.04199360e-02	0.00000000e+00
0.225          	1.32712110e-01	1.95039450e-02	1.51264800e-02	2.22669940e-02	0.00000000e+00
0.23           	1.25279860e-01	1.91369940e-02	1.48388580e-02	1.80252710e-02	0.00000000e+00
0.235          	3.04498400e-01	1.87854800e-02	1.45640410e-02	2.42685920e-02	0.00000000e+00
0.24           	1.73973810e-01	1.84475160e-02	1.43012010e-02	1.29562080e-02	0.00000000e+00
0.245          	1.31370920e-01	1.81205130e-02	1.40480290e-02	1.63843190e-02	0.00000000e+00
0.25           	1.64423500e-01	1.78064760e-02	1.38051330e-02	1.80267100e-02	0.00000000e+00
0.255          	1.63012670e-01	1.75046480e-02	1.35721980e-02	1.09888920e-02	0.00000000e+00
0.26           	1.23487530e-01	1.72143310e-02	1.33486290e-02	1.78025610e-02	0.00000000e+00
0.265          	1.40630470e-01	1.69348760e-02	1.31338770e-02	1.24421950e-02	0.00000000e+00
0.27           	2.87696330e-01	1.66653780e-02	1.29274950e-02	1.17075510e-02	0.00000000e+00
0.275          	1.41922360e-01	1.64028040e-02	1.27297590e-02	1.52052200e-02	0.00000000e+00
0.28           	4.64723980e-01	1.61495620e-02	1.25378230e-02	1.76973460e-02	0.00000000e+00
0.285          	1.77230700e-01	1.59051610e-02	1.23528740e-02	1.40130010e-02	0.00000000e+00
0.29           	4.48004840e-01	1.56691490e-02	1.21746060e-02	1.27530710e-02	0.00000000e+00
0.295          	5.39005060e-01	1.54411010e-02	1.20026670e-02	1.21396690e-02	0.00000000e+00
0.3            	3.20718100e-01	1.52206210e-02	1.18367290e-02	1.57048090e-02	0.00000000e+00
0.305          	5.79636750e-01	1.50073410e-02	1.16764890e-02	1.36698660e-02	0.00000000e+00
0.31           	3.35307300e-01	1.48009140e-02	1.15216620e-02	1.33543230e-02	0.00000000e+00
0.315          	3.45247680e-01	1.46010160e-02	1.13719800e-02	1.37261830e-02	0.00000000e+00
0.32           	1.94655770e-01	1.44073430e-02	1.12271960e-02	1.23602020e-02	0.00000000e+00
0.325          	5.65322560e-01	1.42196090e-02	1.10870750e-02	1.60387540e-02	0.00000000e+00
0.33           	3.59427670e-01	1.40375480e-02	1.09513990e-02	1.18131210e-02	0.00000000e+00
0.335          	1.36726290e-01	1.38591630e-02	1.08199620e-02	1.62786040e-02	0.00000000e+00
0.34           	2.18509540e-01	1.36857330e-02	1.06925710e-02	1.27305990e-02	0.00000000e+00
0.345          	1.20415730e-01	1.35173310e-02	1.05690440e-02	1.70818230e-02	0.00000000e+00
0.35           	1.87450890e-01	1.33537460e-02	1.04487070e-02	1.27688480e-02	0.00000000e+00
0.355          	3.91452970e-01	1.31947780e-02	1.03313660e-02	1.39256540e-02	0.00000000e+00
0.36           	1.31470530e-01	1.30402320e-02	1.02174390e-02	1.07098500e-02	0.00000000e+00
0.365          	4.33566750e-01	1.28891540e-02	1.01070760e-02	1.06599520e-02	0.00000000e+00
0.37           	1.64023740e-01	1.27411390e-02	1.00002670e-02	1.45686540e-02	0.00000000e+00
0.375          	1.15117600e-01	1.25970920e-02	9.89644920e-03	1.25307490e-02	0.00000000e+00
0.38           	2.69516680e-01	1.24568570e-02	9.79550180e-03	1.47850080e-02	0.00000000e+00
0.385          	3.32496840e-01	1.23202860e-02	9.69671070e-03	1.02923940e-02	0.00000000e+00
0.39           	6.23193560e-01	1.21872400e-02	9.60021780e-03	1.27609140e-02	0.00000000e+00
0.395          	1.46951770e-01	1.20575850e-02	9.50629570e-03	1.26266250e-02	0.00000000e+00
0.4            	1.33970230e-01	1.19311960e-02	9.41484490e-03	1.21677730e-02	0.00000000e+00
0.405          	2.82748420e-01	1.18079510e-02	9.32577090e-03	1.05972110e-02	0.00000000e+00
0.41           	1.12227370e-01	1.16877360e-02	9.23898390e-03	1.34933270e-02	0.00000000e+00
0.415          	4.59608750e-01	1.15704430e-02	9.15439840e-03	1.02603230e-02	0.00000000e+00
0.42           	1.50157280e-01	1.14559680e-02	9.07193320e-03	9.87716090e-03	0.00000000e+00
0.425          	3.29188240e-01	1.13442120e-02	8.99151100e-03	1.13611150e-02	0.00000000e+00
0.43           	1.27680150e-01	1.12350800e-02	8.91305800e-03	1.12840580e-02	0.00000000e+00
0.435          	1.81199130e-01	1.11284830e-02	8.83650400e-03	1.01525870e-02	0.00000000e+00
0.44           	1.94145520e-01	1.10243370e-02	8.76178200e-03	1.26897290e-02	0.00000000e+00
0.445          	1.31904560e-01	1.09225650e-02	8.68882800e-03	9.28190440e-03	0.00000000e+00
0.45           	1.28258650e-01	1.08227750e-02	8.61758110e-03	1.05525070e-02	0.00000000e+00
0.455          	1.89532580e-01	1.07243130e-02	8.54798290e-03	1.11314440e-02	0.00000000e+00
0.46           	2.21199410e-01	1.06280240e-02	8.47997760e-03	7.25702560e-03	0.00000000e+00
0.465          	1.60906900e-01	1.05338400e-02	8.41351200e-03	9.49961900e-03	0.00000000e+00
0.47           	1.50943600e-01	1.04416940e-02	8.34853520e-03	1.01313410e-02	0.00000000e+00
0.475          	1.94640930e-01	1.03515210e-02	8.28499820e-03	1.02345100e-02	0.00000000e+00
0.48           	2.77594280e-01	1.02632600e-02	8.22285430e-03	7.09838620e-03	0.00000000e+00
0.485          	1.56932010e-01	1.01761790e-02	8.16205880e-03	9.95126700e-03	0.00000000e+00
0.49           	1.94650970e-01	1.00904850e-02	8.10242370e-03	9.30675030e-03	0.00000000e+00
0.495          	1.73242970e-01	1.00065620e-02	8.04357610e-03	9.14334650e-03	0.00000000e+00
0.5            	1.91695640e-01	9.92416700e-03	7.98596770e-03	8.82775590e-03	0.00000000e+00
0.505          	3.51147940e-01	9.84360640e-03	7.92956030e-03	8.66266280e-03	0.00000000e+00
0.51           	2.10766050e-01	9.76471480e-03	7.87431680e-03	8.49239170e-03	0.00000000e+00
0.515          	1.69796400e-01	9.68740780e-03	7.82020200e-03	9.22119670e-03	0.00000000e+00
0.52           	2.97951080e-01	9.61179850e-03	7.76718190e-03	9.35695330e-03	0.00000000e+00
0.525          	1.56878150e-01	9.53752620e-03	7.71539210e-03	8.31059700e-03	0.00000000e+00
0.53           	1.72039810e-01	9.46464180e-03	7.66442130e-03	8.46477550e-03	0.00000000e+00
0.535          	2.57759620e-01	9.39313880e-03	7.61448350e-03	8.42957580e-03	0.00000000e+00
0.54           	4.59771480e-01	9.32299240e-03	7.56553160e-03	8.13627430e-03	0.00000000e+00
0.545          	1.49278830e-01	9.25401900e-03	7.51753170e-03	4.96012890e-03	0.00000000e+00
0.55           	6.57065470e-01	9.18646660e-03	7.47045460e-03	8.77852730e-03	0.00000000e+00
0.555          	2.87395920e-01	9.12020980e-03	7.42427360e-03	7.46026810e-03	0.00000000e+00
0.56           	1.50313510e-01	9.05518590e-03	7.37896340e-03	5.92304410e-03	0.00000000e+00
0.565          	2.22988100e-01	8.99135310e-03	7.33449950e-03	7.08393660e-03	0.00000000e+00
0.57           	9.58546540e-01	8.92867720e-03	7.29085850e-03	6.77516120e-03	0.00000000e+00
0.575          	6.27673000e-01	8.86726060e-03	7.24803840e-03	6.16802440e-03	0.00000000e+00
0.58           	1.73069990e-01	8.80683090e-03	7.20597460e-03	9.70763520e-03	0.00000000e+00
0.585          	1.43150840e-01	8.74743510e-03	7.16466130e-03	1.20677170e-02	0.00000000e+00
0.59           	1.78431170e-01	8.68907010e-03	7.12408300e-03	1.02608310e-02	0.00000000e+00
0.595          	2.88945050e-01	8.63171770e-03	7.08422180e-03	8.35144450e-03	0.00000000e+00
0.6            	7.21907260e-01	8.57487000e-03	7.04505920e-03	8.14833060e-03	0.00000000e+00
0.605          	1.67052380e-01	8.51862730e-03	7.00657690e-03	9.35325850e-03	0.00000000e+00
0.61           	2.09670780e-01	8.46343920e-03	6.96875720e-03	9.39279000e-03	0.00000000e+00
0.615          	1.29064310e-01	8.40921550e-03	6.93158310e-03	8.79241450e-03	0.00000000e+00
0.62           	1.20266530e-01	8.35591220e-03	6.89503770e-03	1.04948050e-02	0.00000000e+00
0.625          	1.20546250e-01	8.30349630e-03	6.85908600e-03	1.15001390e-02	0.00000000e+00
0.63           	5.66904310e-01	8.25194780e-03	6.82375060e-03	7.76892030e-03	0.00000000e+00
0.635          	2.21546630e-01	8.20066850e-03	6.78900320e-03	4.67000280e-03	0.00000000e+00
0.64           	1.79980310e-01	8.15020890e-03	6.75482500e-03	1.02178610e-02	0.00000000e+00
0.645          	1.02739810e-01	8.10048630e-03	6.72120050e-03	1.01153090e-02	0.00000000e+00
0.65           	2.48065260e-01	8.05153960e-03	6.68823490e-03	4.58722520e-03	0.00000000e+00
0.655          	2.88478570e-01	8.00336900e-03	6.65589120e-03	6.86943020e-03	0.00000000e+00
0.66           	3.71670440e-01	7.95596270e-03	6.62405830e-03	6.79497640e-03	0.00000000e+00
0.665          	1.28701720e-01	7.90930540e-03	6.59272390e-03	8.24880240e-03	0.00000000e+00
0.67           	1.86469130e-01	7.86319250e-03	6.56187580e-03	8.37909120e-03	0.00000000e+00
0.675          	1.51576300e-01	7.81795400e-03	6.53136300e-03	6.45314680e-03	0.00000000e+00
0.68           	3.26747600e-01	7.77356560e-03	6.50111610e-03	7.11759400e-03	0.00000000e+00
0.685          	2.79638790e-01	7.72979690e-03	6.47129040e-03	6.89524960e-03	0.00000000e+00
0.69           	1.78699530e-01	7.68667610e-03	6.44190020e-03	7.81880910e-03	0.00000000e+00
0.695          	5.57693760e-01	7.64420260e-03	6.41294340e-03	6.08522620e-03	0.00000000e+00
0.7            	1.87205970e-01	7.60244270e-03	6.38441240e-03	5.60755780e-03	0.00000000e+00
0.705          	1.56420900e-01	7.56124490e-03	6.35629830e-03	4.50717300e-03	0.00000000e+00
0.71           	1.86789740e-01	7.52063970e-03	6.32856220e-03	6.65800780e-03	0.00000000e+00
0.715          	6.90234170e-01	7.48062840e-03	6.30088750e-03	5.58574170e-03	0.00000000e+00
0.72           	1.91083010e-01	7.44120300e-03	6.27360770e-03	5.64563430e-03	0.00000000e+00
0.725          	2.82160120e-01	7.40235280e-03	6.24671380e-03	5.99646380e-03	0.00000000e+00
0.73           	1.89303700e-01	7.36391760e-03	6.22019710e-03	8.53362150e-03	0.00000000e+00
0.735          	1.44913710e-01	7.32623720e-03	6.19404900e-03	6.38768630e-03	0.00000000e+00
0.74           	3.11277230e-01	7.28907100e-03	6.16826130e-03	6.69158020e-03	0.00000000e+00
0.745          	3.65734320e-01	7.25242330e-03	6.14278400e-03	4.80261130e-03	0.00000000e+00
0.75           	2.43613760e-01	7.21629080e-03	6.11768290e-03	6.82957060e-03	0.00000000e+00
0.755          	2.95196540e-01	7.18066530e-03	6.09292900e-03	7.24844290e-03	0.00000000e+00
0.76           	1.85203440e-01	7.14553730e-03	6.06850790e-03	6.35823460e-03	0.00000000e+00
0.765          	5.74868940e-01	7.11089700e-03	6.04440990e-03	4.75201990e-03	0.00000000e+00
0.77           	1.35231440e-01	7.07673500e-03	6.02062730e-03	4.23312370e-03	0.00000000e+00
0.775          	7.71420360e-01	7.04304180e-03	5.99715290e-03	6.74085410e-03	0.00000000e+00
0.78           	1.85800890e-01	7.00969230e-03	5.97398000e-03	6.20832100e-03	0.00000000e+00
0.785          	2.00377850e-01	6.97642840e-03	5.95110200e-03	6.90545150e-03	0.00000000e+00
0.79           	1.90660300e-01	6.94354990e-03	5.92851250e-03	6.70422910e-03	0.00000000e+00
0.795          	5.07966650e-01	6.91116390e-03	5.90620540e-03	7.12375390e-03	0.00000000e+00
0.8            	1.73415900e-01	6.87922650e-03	5.88417470e-03	5.63594360e-03	0.00000000e+00
0.805          	4.26617240e-01	6.84771770e-03	5.86241440e-03	4.67198820e-03	0.00000000e+00
0.81           	2.54762100e-01	6.81662680e-03	5.84095560e-03	4.02388590e-03	0.00000000e+00
0.815          	1.44146800e-01	6.78583770e-03	5.81964370e-03	4.36310980e-03	0.00000000e+00
0.82           	3.05438510e-01	6.75509580e-03	5.79863940e-03	6.50650950e-03	0.00000000e+00
0.825          	6.34909410e-01	6.72475250e-03	5.77790110e-03	6.48738610e-03	0.00000000e+00
0.83           	3.52621670e-01	6.69480050e-03	5.75741190e-03	4.83056360e-03	0.00000000e+00
0.835          	1.82026070e-01	6.66523270e-03	5.73716270e-03	4.09410500e-03	0.00000000e+00
0.84           	3.44933120e-01	6.63604180e-03	5.71714720e-03	4.34807760e-03	0.00000000e+00
0.845          	2.10694290e-01	6.60722090e-03	5.69736030e-03	6.23224740e-03	0.00000000e+00
0.85           	2.62083310e-01	6.57876330e-03	5.67779700e-03	5.58794220e-03	0.00000000e+00
0.855          	1.16726510e-01	6.55066220e-03	5.65845270e-03	5.09232020e-03	0.00000000e+00
0.86           	1.14847300e-01	6.52285100e-03	5.63932300e-03	6.38821400e-03	0.00000000e+00
0.865          	1.61101770e-01	6.49543150e-03	5.62040330e-03	5.04126110e-03	0.00000000e+00
0.87           	3.37277740e-01	6.46836480e-03	5.60168960e-03	6.00989470e-03	0.00000000e+00
0.875          	1.98923070e-01	6.44163410e-03	5.58317750e-03	4.49260370e-03	0.00000000e+00
0.88           	3.99692490e-01	6.41523090e-03	5.56490560e-03	4.06311420e-03	0.00000000e+00
0.885          	3.30173790e-01	6.38914790e-03	5.54679640e-03	4.90626450e-03	0.00000000e+00
0.89           	5.14495440e-01	6.36337860e-03	5.52886660e-03	5.41389170e-03	0.00000000e+00
0.895          	3.65973600e-01	6.33791730e-03	5.51115040e-03	4.84021810e-03	0.00000000e+00
0.9            	3.50526010e-01	6.31275910e-03	5.49359250e-03	4.59431690e-03	0.00000000e+00
0.905          	1.53113370e-01	6.28789790e-03	5.47620540e-03	5.37561010e-03	0.00000000e+00
0.91           	3.64546180e-01	6.26332840e-03	5.45899080e-03	5.58701320e-03	0.00000000e+00
0.915          	1.59032450e-01	6.23904530e-03	5.44175760e-03	5.33273430e-03	0.00000000e+00
0.92           	1.68057090e-01	6.21504370e-03	5.42463450e-03	3.92969690e-03	0.00000000e+00
0.925          	1.36314710e-01	6.19131650e-03	5.40755860e-03	4.03590360e-03	0.00000000e+00
0.93           	2.03116040e-01	6.16785960e-03	5.39073430e-03	5.98171600e-03	0.00000000e+00
0.935          	1.49116580e-01	6.14471730e-03	5.37410000e-03	4.70832710e-03	0.00000000e+00
0.94           	1.46663630e-01	6.12183820e-03	5.35763350e-03	5.43396620e-03	0.00000000e+00
0.945          	1.67336380e-01	6.09917430e-03	5.34132510e-03	4.60291740e-03	0.00000000e+00
0.95           	3.02281400e-01	6.07675040e-03	5.32515230e-03	4.10015480e-03	0.00000000e+00
0.955          	2.84940480e-01	6.05443610e-03	5.30890730e-03	5.15784520e-03	0.00000000e+00
0.96           	1.78943370e-01	6.03247310e-03	5.29281130e-03	4.35916680e-03	0.00000000e+00
0.965          	1.32464710e-01	6.01078640e-03	5.27690980e-03	4.69898560e-03	0.00000000e+00
0.97           	1.84952230e-01	5.98934830e-03	5.26111720e-03	3.86318170e-03	0.00000000e+00
0.975          	2.70734730e-01	5.96814660e-03	5.24545350e-03	4.93402200e-03	0.00000000e+00
0.98           	1.82322780e-01	5.94717480e-03	5.22995920e-03	4.16236770e-03	0.00000000e+00
0.985          	7.17855000e-01	5.92642880e-03	5.21457350e-03	3.65158740e-03	0.00000000e+00
0.99           	1.45537710e-01	5.90590400e-03	5.19931160e-03	4.58937120e-03	0.00000000e+00
0.995          	4.25931800e-01	5.88564520e-03	5.18417690e-03	4.19613560e-03	0.00000000e+00
1              	1.03978280e-01	5.86554490e-03	5.16916870e-03	4.44463290e-03	0.00000000e+00
1.005          	8.37638020e-02	5.84533580e-03	5.15431070e-03	3.70028610e-03	0.00000000e+00
1.01           	1.69064810e-01	5.82533350e-03	5.13955720e-03	5.65467680e-03	0.00000000e+00
1.015          	1.29313560e-01	5.80557390e-03	5.12491810e-03	4.52066260e-03	0.00000000e+00
1.02           	1.55332420e-01	5.78601840e-03	5.11039510e-03	5.28371430e-03	0.00000000e+00
1.025          	3.20135820e-01	5.76662960e-03	5.09598740e-03	4.40349030e-03	0.00000000e+00
1.03           	1.64027080e-01	5.74742700e-03	5.08169330e-03	4.39632970e-03	0.00000000e+00
1.035          	1.76548660e-01	5.72841470e-03	5.06751070e-03	4.34773470e-03	0.00000000e+00
1.04           	6.87796520e-01	5.70934920e-03	5.05343750e-03	4.90495160e-03	0.00000000e+00
1.045          	3.52827870e-01	5.69040700e-03	5.03947190e-03	4.81699610e-03	0.00000000e+00
1.05           	3.89336360e-01	5.67165260e-03	5.02561160e-03	3.65877720e-03	0.00000000e+00
1.055          	1.67792830e-01	5.65308230e-03	5.01176040e-03	5.15032010e-03	0.00000000e+00
1.06           	2.00544730e-01	5.63469290e-03	4.99807770e-03	3.36313230e-03	0.00000000e+00
1.065          	1.34216650e-01	5.61648220e-03	4.98451690e-03	3.55478910e-03	0.00000000e+00
1.07           	2.92845410e-01	5.59844830e-03	4.97110080e-03	5.01219190e-03	0.00000000e+00
1.075          	1.57163360e-01	5.58058780e-03	4.95775500e-03	4.61483800e-03	0.00000000e+00
1.08           	2.71595660e-01	5.56291880e-03	4.94449490e-03	4.11277200e-03	0.00000000e+00
1.085          	1.09635300e-01	5.54528730e-03	4.93132420e-03	4.60202290e-03	0.00000000e+00
1.09           	2.06794930e-01	5.52790410e-03	4.91824310e-03	3.42459190e-03	0.00000000e+00
1.095          	4.98170120e-01	5.51071050e-03	4.90527900e-03	3.47800140e-03	0.00000000e+00
1.1            	5.14582890e-01	5.49368530e-03	4.89238190e-03	4.21571230e-03	0.00000000e+00
1.105          	2.13918350e-01	5.47681980e-03	4.87956360e-03	3.23973300e-03	0.00000000e+00
1.11           	1.34354800e-01	5.46017240e-03	4.86682700e-03	5.30445910e-03	0.00000000e+00
1.115          	1.92500890e-01	5.44362800e-03	4.85417200e-03	2.99993720e-03	0.00000000e+00
1.12           	1.59478170e-01	5.42721680e-03	4.84159770e-03	3.48075420e-03	0.00000000e+00
1.125          	4.73377700e-01	5.41094720e-03	4.82910270e-03	3.32448090e-03	0.00000000e+00
1.13           	2.02514220e-01	5.39482040e-03	4.81668550e-03	2.64961630e-03	0.00000000e+00
1.135          	4.12985230e-01	5.37883510e-03	4.80434480e-03	3.00758900e-03	0.00000000e+00
1.14           	6.17566000e-01	5.36298960e-03	4.79207900e-03	3.88576320e-03	0.00000000e+00
1.145          	2.18935560e-01	5.34730250e-03	4.77988690e-03	2.85343600e-03	0.00000000e+00
1.15           	1.79118670e-01	5.33173350e-03	4.76766170e-03	3.51517630e-03	0.00000000e+00
1.155          	5.94943330e-01	5.31629160e-03	4.75558130e-03	3.33283460e-03	0.00000000e+00
1.16           	4.57129840e-01	5.30097870e-03	4.74359500e-03	2.95295170e-03	0.00000000e+00
1.165          	2.80820010e-01	5.28579480e-03	4.73172920e-03	3.10822960e-03	0.00000000e+00
1.17           	1.37512480e-01	5.27073790e-03	4.71990230e-03	3.93054760e-03	0.00000000e+00
1.175          	1.91927030e-01	5.25580610e-03	4.70813170e-03	3.56926650e-03	0.00000000e+00
1.18           	1.33693910e-01	5.24099710e-03	4.69642260e-03	3.76866150e-03	0.00000000e+00
1.185          	2.15083180e-01	5.22630910e-03	4.68477570e-03	2.79788750e-03	0.00000000e+00
1.19           	1.52249530e-01	5.21175530e-03	4.67319050e-03	2.72005320e-03	0.00000000e+00
1.195          	1.39373790e-01	5.19730690e-03	4.66169760e-03	3.16994250e-03	0.00000000e+00
1.2            	4.87290520e-01	5.18297000e-03	4.65024240e-03	3.61584450e-03	0.00000000e+00
1.205          	1.43796920e-01	5.16874510e-03	4.63883860e-03	2.80309600e-03	0.00000000e+00
1.21           	9.86123880e-02	5.15463130e-03	4.62748990e-03	3.23713020e-03	0.00000000e+00
1.215          	2.25351300e-01	5.14062700e-03	4.61613050e-03	2.91412000e-03	0.00000000e+00
1.22           	2.09539260e-01	5.12673050e-03	4.60472690e-03	3.82817200e-03	0.00000000e+00
1.225          	4.34951360e-01	5.11273460e-03	4.59337920e-03	3.86626030e-03	0.00000000e+00
1.23           	1.85068400e-01	5.09899830e-03	4.58208650e-03	3.93942740e-03	0.00000000e+00
1.235          	2.85744200e-01	5.08541550e-03	4.57084760e-03	4.16481490e-03	0.00000000e+00
1.24           	1.21017540e-01	5.07195000e-03	4.55966170e-03	3.90881070e-03	0.00000000e+00
1.245          	1.20288090e-01	5.05858880e-03	4.54852770e-03	4.48313210e-03	0.00000000e+00
1.25           	1.01283520e-01	5.04537650e-03	4.53737880e-03	4.47168620e-03	0.00000000e+00
1.255          	1.32433130e-01	5.03222270e-03	4.52627950e-03	5.03531840e-03	0.00000000e+00
1.26           	1.76578280e-01	5.01915070e-03	4.51513070e-03	4.39748620e-03	0.00000000e+00
1.265          	1.42289350e-01	5.00629210e-03	4.50403680e-03	3.73083710e-03	0.00000000e+00
1.27           	2.10143280e-01	4.99327610e-03	4.49299330e-03	4.87892220e-03	0.00000000e+00
1.275          	2.09506980e-01	4.98025080e-03	4.48199830e-03	4.88767760e-03	0.00000000e+00
1.28           	1.59271650e-01	4.96730590e-03	4.47105060e-03	4.11196670e-03	0.00000000e+00
1.285          	3.90462260e-01	4.95444670e-03	4.46014900e-03	3.64586320e-03	0.00000000e+00
1.29           	2.03844720e-01	4.94167430e-03	4.44929280e-03	3.69039330e-03	0.00000000e+00
1.295          	1.64019460e-01	4.92898820e-03	4.43851570e-03	4.77569540e-03	0.00000000e+00
1.3            	2.04072700e-01	4.91639840e-03	4.42775820e-03	4.54018720e-03	0.00000000e+00
1.305          	1.30339490e-01	4.90387270e-03	4.41703560e-03	4.00940630e-03	0.00000000e+00
1.31           	1.83545980e-01	4.89122400e-03	4.40635240e-03	4.33491480e-03	0.00000000e+00
1.315          	1.29326530e-01	4.87865730e-03	4.39570960e-03	4.08205310e-03	0.00000000e+00
1.32           	2.99495020e-01	4.86617190e-03	4.38510710e-03	4.54264590e-03	0.00000000e+00
1.325          	1.65693230e-01	4.85376660e-03	4.37454420e-03	5.39003460e-03	0.00000000e+00
1.33           	4.60195250e-01	4.84122600e-03	4.36402040e-03	4.49238690e-03	0.00000000e+00
1.335          	2.32925190e-01	4.82892160e-03	4.35346050e-03	4.70126110e-03	0.00000000e+00
1.34           	1.26213620e-01	4.81674580e-03	4.34298970e-03	5.77063920e-03	0.00000000e+00
1.345          	1.49314410e-01	4.80466200e-03	4.33257300e-03	4.35434980e-03	0.00000000e+00
1.35           	2.59917940e-01	4.79265730e-03	4.32219820e-03	4.84278720e-03	0.00000000e+00
1.355          	1.38648150e-01	4.78072670e-03	4.31186090e-03	3.46376410e-03	0.00000000e+00
1.36           	1.33928530e-01	4.76886770e-03	4.30155920e-03	4.35457960e-03	0.00000000e+00
1.365          	1.56711760e-01	4.75713030e-03	4.29129200e-03	4.08105930e-03	0.00000000e+00
1.37           	8.54719880e-02	4.74542430e-03	4.28105860e-03	4.22562410e-03	0.00000000e+00
1.375          	2.01863940e-01	4.73377340e-03	4.27085810e-03	5.00295910e-03	0.00000000e+00
1.38           	1.63173900e-01	4.72218510e-03	4.26069010e-03	4.08915070e-03	0.00000000e+00
1.385          	2.14772870e-01	4.71066070e-03	4.25055390e-03	4.16671400e-03	0.00000000e+00
1.39           	1.57155850e-01	4.69920030e-03	4.24044890e-03	4.49587600e-03	0.00000000e+00
1.395          	1.18952960e-01	4.68780330e-03	4.23041220e-03	4.26250440e-03	0.00000000e+00
1.4            	1.56034160e-01	4.67646850e-03	4.22037960e-03	4.16494520e-03	0.00000000e+00
1.405          	2.39703120e-01	4.66519500e-03	4.21036790e-03	4.43341510e-03	0.00000000e+00
1.41           	2.12651840e-01	4.65398160e-03	4.20038220e-03	4.53848130e-03	0.00000000e+00
1.415          	4.00409970e-01	4.64282740e-03	4.19042400e-03	4.16277420e-03	0.00000000e+00
1.42           	1.59692360e-01	4.63173120e-03	4.18049340e-03	3.91292410e-03	0.00000000e+00
1.425          	1.98540230e-01	4.62069230e-03	4.17059010e-03	3.39622170e-03	0.00000000e+00
1.43           	1.61741120e-01	4.60970940e-03	4.16071360e-03	3.02939490e-03	0.00000000e+00
1.435          	1.86857310e-01	4.59878180e-03	4.15086340e-03	3.70480470e-03	0.00000000e+00
1.44           	2.94104580e-01	4.58790850e-03	4.14103920e-03	4.10545020e-03	0.00000000e+00
1.445          	1.78465290e-01	4.57708840e-03	4.13129990e-03	4.02530440e-03	0.00000000e+00
1.45           	1.52011950e-01	4.56635390e-03	4.12154420e-03	4.26906090e-03	0.00000000e+00
1.455          	1.33030680e-01	4.55564740e-03	4.11179930e-03	4.32308460e-03	0.00000000e+00
1.46           	1.67686050e-01	4.54498390e-03	4.10207390e-03	3.78256670e-03	0.00000000e+00
1.465          	1.79216920e-01	4.53436770e-03	4.09237040e-03	3.80724730e-03	0.00000000e+00
1.47           	1.54893430e-01	4.52379960e-03	4.08268970e-03	4.43127450e-03	0.00000000e+00
1.475          	1.36013170e-01	4.51327810e-03	4.07290130e-03	4.16039530e-03	0.00000000e+00
1.48           	4.41001260e-01	4.50280370e-03	4.06322510e-03	3.67579650e-03	0.00000000e+00
1.485          	1.54835130e-01	4.49237560e-03	4.05360070e-03	4.10754910e-03	0.00000000e+00
1.49           	4.23771810e-01	4.48199350e-03	4.04404880e-03	4.17646210e-03	0.00000000e+00
1.495          	1.06496610e-01	4.47165650e-03	4.03449320e-03	4.42042990e-03	0.00000000e+00
1.5            	1.28448120e-01	4.46136380e-03	4.02495000e-03	3.64613010e-03	0.00000000e+00
1.505          	9.13767430e-02	4.45113590e-03	4.01542430e-03	3.72034990e-03	0.00000000e+00
1.51           	2.07452910e-01	4.44093490e-03	4.00591770e-03	4.10485450e-03	0.00000000e+00
1.515          	1.88678230e-01	4.43077070e-03	3.99643040e-03	3.66383990e-03	0.00000000e+00
1.52           	1.70782000e-01	4.42064600e-03	3.98696220e-03	4.01523430e-03	0.00000000e+00
1.525          	1.49531810e-01	4.41056120e-03	3.97751290e-03	3.56685100e-03	0.00000000e+00
1.53           	2.73524350e-01	4.40051660e-03	3.96813170e-03	3.97520100e-03	0.00000000e+00
1.535          	1.49320940e-01	4.39031830e-03	3.95875040e-03	3.03375040e-03	0.00000000e+00
1.54           	1.85498500e-01	4.38029680e-03	3.94936440e-03	3.90422740e-03	0.00000000e+00
1.545          	9.79668810e-02	4.37035850e-03	3.93998840e-03	4.21826820e-03	0.00000000e+00
1.55           	1.31234230e-01	4.36047210e-03	3.93062710e-03	3.24741430e-03	0.00000000e+00
1.555          	1.36430810e-01	4.35062680e-03	3.92128180e-03	3.40197910e-03	0.00000000e+00
1.56           	2.02788630e-01	4.34081860e-03	3.91195280e-03	2.87809710e-03	0.00000000e+00
1.565          	1.69047480e-01	4.33104560e-03	3.90264000e-03	3.53447760e-03	0.00000000e+00
1.57           	1.26539490e-01	4.32130700e-03	3.89334320e-03	3.37592430e-03	0.00000000e+00
1.575          	2.61298280e-01	4.31160200e-03	3.88407300e-03	2.86923600e-03	0.00000000e+00
1.58           	2.96919200e-01	4.30193010e-03	3.87481060e-03	2.86330760e-03	0.00000000e+00
1.585          	1.67478870e-01	4.29229050e-03	3.86556080e-03	2.67822260e-03	0.00000000e+00
1.59           	1.51508330e-01	4.28268260e-03	3.85628530e-03	3.07809410e-03	0.00000000e+00
1.595          	1.73662800e-01	4.27300160e-03	3.84695410e-03	1.99849460e-03	0.00000000e+00
1.6            	2.78929040e-01	4.26330700e-03	3.83764600e-03	2.48757040e-03	0.00000000e+00
1.605          	2.40574660e-01	4.25364380e-03	3.82834750e-03	2.83183820e-03	0.00000000e+00
1.61           	2.34379920e-01	4.24401150e-03	3.81906190e-03	2.21297610e-03	0.00000000e+00
1.615          	2.07998100e-01	4.23440940e-03	3.80979030e-03	2.48488450e-03	0.00000000e+00
1.62           	1.95559990e-01	4.22483590e-03	3.80033670e-03	3.08808300e-03	0.00000000e+00
1.625          	1.53478600e-01	4.21529080e-03	3.79103200e-03	3.27527840e-03	0.00000000e+00
1.63           	1.78262810e-01	4.20577410e-03	3.78178620e-03	3.11230180e-03	0.00000000e+00
1.635          	1.98559990e-01	4.19621220e-03	3.77247540e-03	2.95409880e-03	0.00000000e+00
1.64           	1.56704810e-01	4.18660820e-03	3.76317100e-03	3.00836640e-03	0.00000000e+00
1.645          	1.42113220e-01	4.17708270e-03	3.75388240e-03	2.75055510e-03	0.00000000e+00
1.65           	1.14170590e-01	4.16754990e-03	3.74460830e-03	3.02939230e-03	0.00000000e+00
1.655          	1.34463560e-01	4.15803300e-03	3.73534810e-03	2.52312700e-03	0.00000000e+00
1.66           	2.84690140e-01	4.14853950e-03	3.72615020e-03	2.84709510e-03	0.00000000e+00
1.665          	4.47944140e-01	4.13907160e-03	3.71693220e-03	2.56128760e-03	0.00000000e+00
1.67           	1.62129510e-01	4.12962950e-03	3.70771610e-03	2.50760310e-03	0.00000000e+00
1.675          	2.67866110e-01	4.12021280e-03	3.69850910e-03	2.61772110e-03	0.00000000e+00
1.68           	1.33070360e-01	4.11082140e-03	3.68931350e-03	2.16411230e-03	0.00000000e+00
1.685          	1.33736940e-01	4.10145470e-03	3.68013000e-03	2.04013960e-03	0.00000000e+00
1.69           	1.13345140e-01	4.09211220e-03	3.67095850e-03	2.15212300e-03	0.00000000e+00
1.695          	1.17703990e-01	4.08279370e-03	3.66179920e-03	2.17685160e-03	0.00000000e+00
1.7            	1.33623680e-01	4.07349850e-03	3.65265170e-03	2.08062130e-03	0.00000000e+00
1.705          	1.00943360e-01	4.06425780e-03	3.64359210e-03	2.50718290e-03	0.00000000e+00
1.71           	1.56456050e-01	4.05501810e-03	3.63453000e-03	2.64027800e-03	0.00000000e+00
1.715          	1.25995440e-01	4.04579240e-03	3.62522470e-03	2.88107190e-03	0.00000000e+00
1.72           	2.08207920e-01	4.03658520e-03	3.61606080e-03	3.00806580e-03	0.00000000e+00
1.725          	1.97937320e-01	4.02739850e-03	3.60695130e-03	2.84372350e-03	0.00000000e+00
1.73           	1.28238650e-01	4.01823200e-03	3.59792130e-03	3.15474510e-03	0.00000000e+00
1.735          	1.20694420e-01	4.00908690e-03	3.58886990e-03	2.71039190e-03	0.00000000e+00
1.74           	1.29837510e-01	3.99998340e-03	3.57981840e-03	3.02348130e-03	0.00000000e+00
1.745          	2.23929260e-01	3.99088470e-03	3.57077390e-03	2.91596200e-03	0.00000000e+00
1.75           	2.01289680e-01	3.98180070e-03	3.56173860e-03	3.15629260e-03	0.00000000e+00
1.755          	1.18371170e-01	3.97273420e-03	3.55271310e-03	3.19065510e-03	0.00000000e+00
1.76           	1.51640480e-01	3.96368610e-03	3.54369750e-03	2.53760840e-03	0.00000000e+00
1.765          	1.10376280e-01	3.95467050e-03	3.53469200e-03	3.11777180e-03	0.00000000e+00
1.77           	1.00135200e-01	3.94566280e-03	3.52569620e-03	2.73281600e-03	0.00000000e+00
1.775          	3.65874690e-01	3.93666960e-03	3.51671020e-03	3.30367950e-03	0.00000000e+00
1.78           	9.77061990e-02	3.92770310e-03	3.50773380e-03	2.95419110e-03	0.00000000e+00
1.785          	1.20811180e-01	3.91874610e-03	3.49876690e-03	2.99163390e-03	0.00000000e+00
1.79           	9.14178350e-02	3.90980340e-03	3.48980930e-03	2.87524600e-03	0.00000000e+00
1.795          	2.45979350e-01	3.90088420e-03	3.48089490e-03	2.85573800e-03	0.00000000e+00
1.8            	8.52915470e-02	3.89198140e-03	3.47196640e-03	3.16102200e-03	0.00000000e+00
1.805          	1.75292610e-01	3.88308860e-03	3.46303920e-03	2.67637920e-03	0.00000000e+00
1.81           	1.32077490e-01	3.87421380e-03	3.45411840e-03	3.06501430e-03	0.00000000e+00
1.815          	1.61611570e-01	3.86535680e-03	3.44520570e-03	2.93892320e-03	0.00000000e+00
1.82           	1.66525640e-01	3.85619440e-03	3.43630140e-03	2.99124980e-03	0.00000000e+00
1.825          	2.60311950e-01	3.84726700e-03	3.42740570e-03	3.34548010e-03	0.00000000e+00
1.83           	3.16300940e-01	3.83842730e-03	3.41858160e-03	2.98136510e-03	0.00000000e+00
1.835          	1.40313010e-01	3.82962610e-03	3.40972990e-03	3.19158920e-03	0.00000000e+00
1.84           	2.77992060e-01	3.82084690e-03	3.40086700e-03	3.13243160e-03	0.00000000e+00
1.845          	1.56354270e-01	3.81208410e-03	3.39201130e-03	2.83696250e-03	0.00000000e+00
1.85           	1.92069150e-01	3.80333560e-03	3.38315810e-03	3.08581970e-03	0.00000000e+00
1.855          	1.41769230e-01	3.79460050e-03	3.37431500e-03	2.72523900e-03	0.00000000e+00
1.86           	1.42116240e-01	3.78587710e-03	3.36522730e-03	2.28333580e-03	0.00000000e+00
1.865          	1.40198820e-01	3.77716550e-03	3.35631820e-03	2.86176440e-03	0.00000000e+00
1.87           	1.30689890e-01	3.76846600e-03	3.34747400e-03	2.58006330e-03	0.00000000e+00
1.875          	4.21841820e-01	3.75977910e-03	3.33871780e-03	2.80952840e-03	0.00000000e+00
1.88           	1.88478240e-01	3.75110460e-03	3.32993400e-03	2.58363050e-03	0.00000000e+00
1.885          	1.70949060e-01	3.74244200e-03	3.32114620e-03	2.86087820e-03	0.00000000e+00
1.89           	1.42756310e-01	3.73379120e-03	3.31236230e-03	2.28724940e-03	0.00000000e+00
1.895          	7.77673970e-02	3.72515180e-03	3.30358470e-03	1.65038600e-03	0.00000000e+00
1.9            	1.88828730e-01	3.71652380e-03	3.29481450e-03	2.04207700e-03	0.00000000e+00
1.905          	1.65489400e-01	3.70790680e-03	3.28605170e-03	2.57048820e-03	0.00000000e+00
1.91           	6.66697280e-02	3.69930070e-03	3.27729640e-03	2.47920000e-03	0.00000000e+00
1.915          	1.23860570e-01	3.69070550e-03	3.26858840e-03	1.92918750e-03	0.00000000e+00
1.92           	1.93801940e-01	3.68212100e-03	3.25986050e-03	2.26586050e-03	0.00000000e+00
1.925          	1.54016190e-01	3.67354690e-03	3.25113090e-03	2.61502790e-03	0.00000000e+00
1.93           	2.34834550e-01	3.66498300e-03	3.24240570e-03	2.54554860e-03	0.00000000e+00
1.935          	1.77059790e-01	3.65642910e-03	3.23371440e-03	2.31832990e-03	0.00000000e+00
1.94           	1.90701160e-01	3.64788520e-03	3.22501110e-03	2.59569320e-03	0.00000000e+00
1.945          	2.12215170e-01	3.63935100e-03	3.21630850e-03	2.35559240e-03	0.00000000e+00
1.95           	8.75690170e-02	3.63082640e-03	3.20763060e-03	2.75609220e-03	0.00000000e+00
1.955          	1.89267310e-01	3.62231110e-03	3.19894570e-03	2.47378800e-03	0.00000000e+00
1.96           	1.18587750e-01	3.61380510e-03	3.19026320e-03	2.10651420e-03	0.00000000e+00
1.965          	2.57056820e-01	3.60530810e-03	3.18160020e-03	2.19905250e-03	0.00000000e+00
1.97           	1.33613310e-01	3.59682010e-03	3.17293410e-03	2.08727620e-03	0.00000000e+00
1.975          	3.04882410e-01	3.58834080e-03	3.16428180e-03	2.36140250e-03	0.00000000e+00
1.98           	3.75892620e-01	3.57987020e-03	3.15563590e-03	2.60242170e-03	0.00000000e+00
1.985          	1.76075830e-01	3.57140810e-03	3.14699470e-03	2.45496380e-03	0.00000000e+00
1.99           	1.37725550e-01	3.56295440e-03	3.13836360e-03	2.48047760e-03	0.00000000e+00
1.995          	1.02321410e-01	3.55450680e-03	3.12940420e-03	2.19207410e-03	0.00000000e+00
2              	1.02370270e-01	3.54606580e-03	3.12067430e-03	2.60907470e-03	0.00000000e+00
2.005          	2.09172890e-01	3.53763230e-03	3.11202670e-03	2.61749270e-03	0.00000000e+00
2.01           	8.79157700e-02	3.52912290e-03	3.10341110e-03	2.17096630e-03	0.00000000e+00
2.015          	1.38077520e-01	3.52061520e-03	3.09481210e-03	2.17217820e-03	0.00000000e+00
2.02           	2.86194420e-01	3.51211620e-03	3.08622200e-03	2.09300910e-03	0.00000000e+00
2.025          	1.75728630e-01	3.50362560e-03	3.07763830e-03	2.59764510e-03	0.00000000e+00
2.03           	1.89026990e-01	3.49514350e-03	3.06906380e-03	2.18247100e-03	0.00000000e+00
2.035          	3.40134060e-01	3.48666970e-03	3.06049570e-03	2.23883920e-03	0.00000000e+00
2.04           	1.66452010e-01	3.47820410e-03	3.05193450e-03	2.34683330e-03	0.00000000e+00
2.045          	1.35837490e-01	3.46974650e-03	3.04337890e-03	2.05431530e-03	0.00000000e+00
2.05           	3.28695910e-01	3.46129700e-03	3.03483100e-03	1.70330500e-03	0.00000000e+00
2.055          	1.42591140e-01	3.45278690e-03	3.02629030e-03	1.63275390e-03	0.00000000e+00
2.06           	2.13237380e-01	3.44426720e-03	3.01775770e-03	1.93640010e-03	0.00000000e+00
2.065          	1.47640600e-01	3.43575600e-03	3.00923130e-03	1.82361710e-03	0.00000000e+00
2.07           	2.53542050e-01	3.42725330e-03	3.00071160e-03	2.00866410e-03	0.00000000e+00
2.075          	2.60828890e-01	3.41875890e-03	2.99215070e-03	1.94082470e-03	0.00000000e+00
2.08           	2.87566190e-01	3.41027280e-03	2.98358290e-03	2.21130090e-03	0.00000000e+00
2.085          	1.01693960e-01	3.40179490e-03	2.97502410e-03	2.20393370e-03	0.00000000e+00
2.09           	3.60425460e-01	3.39332520e-03	2.96647220e-03	1.96793410e-03	0.00000000e+00
2.095          	1.11877560e-01	3.38486340e-03	2.95792650e-03	2.07088910e-03	0.00000000e+00
2.1            	1.12569650e-01	3.37640950e-03	2.94938900e-03	1.97641420e-03	0.00000000e+00
2.105          	1.19131160e-01	3.36796360e-03	2.94085940e-03	1.97815380e-03	0.00000000e+00
2.11           	2.72000140e-01	3.35952540e-03	2.93233740e-03	1.97971980e-03	0.00000000e+00
2.115          	2.07598820e-01	3.35109500e-03	2.92382420e-03	2.24134130e-03	0.00000000e+00
2.12           	2.49419790e-01	3.34267220e-03	2.91528060e-03	2.01363680e-03	0.00000000e+00
2.125          	1.32742170e-01	3.33425700e-03	2.90672350e-03	1.88005600e-03	0.00000000e+00
2.13           	4.75772150e-01	3.32584930e-03	2.89817410e-03	1.87916630e-03	0.00000000e+00
2.135          	7.59066840e-02	3.31744910e-03	2.88963160e-03	2.08560450e-03	0.00000000e+00
2.14           	2.30308810e-01	3.30905630e-03	2.88109800e-03	2.08473250e-03	0.00000000e+00
2.145          	1.06264000e-01	3.30067090e-03	2.87257410e-03	1.81650180e-03	0.00000000e+00
2.15           	1.54450840e-01	3.29229280e-03	2.86405780e-03	1.91491430e-03	0.00000000e+00
2.155          	7.56809400e-02	3.28392190e-03	2.85554860e-03	2.06892970e-03	0.00000000e+00
2.16           	1.53827640e-01	3.27555810e-03	2.84704830e-03	1.90600420e-03	0.00000000e+00
2.165          	8.98497000e-02	3.26720150e-03	2.83855650e-03	2.18576510e-03	0.00000000e+00
2.17           	2.31706220e-01	3.25885200e-03	2.83007430e-03	1.98007320e-03	0.00000000e+00
2.175          	2.05634300e-01	3.25050960e-03	2.82159860e-03	1.93038460e-03	0.00000000e+00
2.18           	1.53727140e-01	3.24217420e-03	2.81313190e-03	1.80837710e-03	0.00000000e+00
2.185          	3.80950970e-01	3.23384570e-03	2.80467470e-03	1.59031240e-03	0.00000000e+00
2.19           	1.85777820e-01	3.22552420e-03	2.79622430e-03	2.15055030e-03	0.00000000e+00
2.195          	6.60726890e-02	3.21720950e-03	2.78778270e-03	1.95720930e-03	0.00000000e+00
2.2            	1.13103250e-01	3.20890170e-03	2.77934980e-03	2.04380370e-03	0.00000000e+00
2.205          	1.84700780e-01	3.20060070e-03	2.77092650e-03	2.28621390e-03	0.00000000e+00
2.21           	2.01910110e-01	3.19230650e-03	2.76250990e-03	2.31554700e-03	0.00000000e+00
2.215          	1.72231850e-01	3.18401900e-03	2.75410230e-03	1.85247510e-03	0.00000000e+00
2.22           	1.35877560e-01	3.17573830e-03	2.74570340e-03	1.86057220e-03	0.00000000e+00
2.225          	1.89682950e-01	3.16746430e-03	2.73731310e-03	1.84930790e-03	0.00000000e+00
2.23           	1.65647890e-01	3.15919690e-03	2.72893240e-03	2.25947800e-03	0.00000000e+00
2.235          	1.90146090e-01	3.15093620e-03	2.72055960e-03	2.05033710e-03	0.00000000e+00
2.24           	1.11431590e-01	3.14268220e-03	2.71219520e-03	1.64120360e-03	0.00000000e+00
2.245          	1.82835430e-01	3.13443470e-03	2.70383940e-03	1.98614070e-03	0.00000000e+00
2.25           	1.14769530e-01	3.12619390e-03	2.69549220e-03	1.91375880e-03	0.00000000e+00
2.255          	3.11634690e-01	3.11795960e-03	2.68715360e-03	2.12619740e-03	0.00000000e+00
2.26           	1.10365530e-01	3.10973180e-03	2.67882380e-03	2.09256490e-03	0.00000000e+00
2.265          	1.62635230e-01	3.10151060e-03	2.67050270e-03	2.03375830e-03	0.00000000e+00
2.27           	1.38451580e-01	3.09329590e-03	2.66219040e-03	2.42800160e-03	0.00000000e+00
2.275          	1.86562060e-01	3.08508780e-03	2.65388680e-03	1.87985900e-03	0.00000000e+00
2.28           	1.13574590e-01	3.07688610e-03	2.64559210e-03	2.34201380e-03	0.00000000e+00
2.285          	2.69211030e-01	3.06869090e-03	2.63730610e-03	2.15985020e-03	0.00000000e+00
2.29           	1.19208190e-01	3.06050220e-03	2.62902910e-03	1.53844750e-03	0.00000000e+00
2.295          	1.70223530e-01	3.05232000e-03	2.62076090e-03	2.07274720e-03	0.00000000e+00
2.3            	9.54323780e-02	3.04414430e-03	2.61250160e-03	2.01498570e-03	0.00000000e+00
2.305          	7.07663630e-02	3.03597500e-03	2.60425130e-03	2.10919700e-03	0.00000000e+00
2.31           	1.16353980e-01	3.02781220e-03	2.59600990e-03	2.04635830e-03	0.00000000e+00
2.315          	1.05609330e-01	3.01965580e-03	2.58777650e-03	1.62165060e-03	0.00000000e+00
2.32           	9.21448340e-02	3.01150590e-03	2.57955380e-03	1.90126040e-03	0.00000000e+00
2.325          	1.81202910e-01	3.00336240e-03	2.57133870e-03	1.90675040e-03	0.00000000e+00
2.33           	1.26574620e-01	2.99522540e-03	2.56313410e-03	1.99900760e-03	0.00000000e+00
2.335          	3.33272190e-01	2.98709490e-03	2.55493820e-03	1.90478230e-03	0.00000000e+00
2.34           	1.26935210e-01	2.97897080e-03	2.54675130e-03	1.90947160e-03	0.00000000e+00
2.345          	1.85843220e-01	2.97085330e-03	2.53857340e-03	1.97218750e-03	0.00000000e+00
2.35           	1.39615620e-01	2.96274210e-03	2.53040480e-03	1.69571750e-03	0.00000000e+00
2.355          	2.30543440e-01	2.95463750e-03	2.52224530e-03	1.73661360e-03	0.00000000e+00
2.36           	3.27872190e-01	2.94653940e-03	2.51409510e-03	1.64272560e-03	0.00000000e+00
2.365          	2.12001560e-01	2.93844770e-03	2.50595410e-03	1.43371680e-03	0.00000000e+00
2.37           	1.12845550e-01	2.93036250e-03	2.49782250e-03	1.38992540e-03	0.00000000e+00
2.375          	2.01007620e-01	2.92228390e-03	2.48969920e-03	1.42821640e-03	0.00000000e+00
2.38           	1.01236750e-01	2.91421180e-03	2.48158690e-03	1.27727100e-03	0.00000000e+00
2.385          	1.70498180e-01	2.90614620e-03	2.47348350e-03	1.30180780e-03	0.00000000e+00
2.39           	1.27446700e-01	2.89808720e-03	2.46538940e-03	1.74890410e-03	0.00000000e+00
2.395          	3.24566290e-01	2.89003470e-03	2.45730480e-03	1.58675750e-03	0.00000000e+00
2.4            	1.63225650e-01	2.88198880e-03	2.44922950e-03	1.59650860e-03	0.00000000e+00
2.405          	9.18513290e-02	2.87394950e-03	2.44116380e-03	1.43902350e-03	0.00000000e+00
2.41           	1.78502500e-01	2.86591680e-03	2.43310770e-03	1.51341490e-03	0.00000000e+00
2.415          	1.66422210e-01	2.85789070e-03	2.42506100e-03	1.71445490e-03	0.00000000e+00
2.42           	1.76621910e-01	2.84987120e-03	2.41702400e-03	1.66136380e-03	0.00000000e+00
2.425          	1.15846890e-01	2.84185850e-03	2.40899660e-03	1.69455540e-03	0.00000000e+00
2.43           	2.48495960e-01	2.83385230e-03	2.40097890e-03	1.71460460e-03	0.00000000e+00
2.435          	3.94728520e-01	2.82585290e-03	2.39297000e-03	1.54055140e-03	0.00000000e+00
2.44           	3.61825900e-01	2.81786020e-03	2.38497220e-03	1.77421460e-03	0.00000000e+00
2.445          	1.02396780e-01	2.80987420e-03	2.37698390e-03	1.80167360e-03	0.00000000e+00
2.45           	1.19407680e-01	2.80189490e-03	2.36900420e-03	1.73276050e-03	0.00000000e+00
2.455          	1.46524130e-01	2.79392240e-03	2.36103490e-03	1.62581250e-03	0.00000000e+00
2.46           	2.30840990e-01	2.78595670e-03	2.35307570e-03	1.68053680e-03	0.00000000e+00
2.465          	2.58205580e-01	2.77799790e-03	2.34512630e-03	1.46176540e-03	0.00000000e+00
2.47           	1.08507980e-01	2.77004580e-03	2.33718690e-03	1.81758250e-03	0.00000000e+00
2.475          	1.80530220e-01	2.76210070e-03	2.32925830e-03	1.62198420e-03	0.00000000e+00
2.48           	2.32659720e-01	2.75416240e-03	2.32133900e-03	1.88289890e-03	0.00000000e+00
2.485          	1.25305380e-01	2.74623100e-03	2.31342870e-03	1.29633440e-03	0.00000000e+00
2.49           	1.06839200e-01	2.73830660e-03	2.30552970e-03	1.26165680e-03	0.00000000e+00
2.495          	2.03679020e-01	2.73038910e-03	2.29763960e-03	1.10473410e-03	0.00000000e+00
2.5            	1.64451030e-01	2.72247860e-03	2.28976080e-03	1.01365040e-03	0.00000000e+00
2.505          	3.16757110e-01	2.71457510e-03	2.28189160e-03	1.06205070e-03	0.00000000e+00
2.51           	1.08348630e-01	2.70667860e-03	2.27403160e-03	1.30405080e-03	0.00000000e+00
2.515          	1.17360530e-01	2.69878920e-03	2.26618310e-03	1.42468250e-03	0.00000000e+00
2.52           	1.16661260e-01	2.69090690e-03	2.25834360e-03	1.10245070e-03	0.00000000e+00
2.525          	1.69894440e-01	2.68303180e-03	2.25051550e-03	1.31548230e-03	0.00000000e+00
2.53           	1.62920170e-01	2.67516370e-03	2.24269640e-03	1.26683880e-03	0.00000000e+00
2.535          	1.77637690e-01	2.66730280e-03	2.23488890e-03	1.14539600e-03	0.00000000e+00
2.54           	1.30429460e-01	2.65944920e-03	2.22709120e-03	1.38542400e-03	0.00000000e+00
2.545          	3.35629010e-01	2.65160280e-03	2.21930280e-03	1.15015900e-03	0.00000000e+00
2.55           	1.91207860e-01	2.64376360e-03	2.21152620e-03	1.22194660e-03	0.00000000e+00
2.555          	8.49033950e-02	2.63593170e-03	2.20375950e-03	1.01625460e-03	0.00000000e+00
2.56           	9.77983300e-02	2.62810710e-03	2.19600230e-03	1.28785420e-03	0.00000000e+00
2.565          	1.11072050e-01	2.62028810e-03	2.18792870e-03	1.25453180e-03	0.00000000e+00
2.57           	1.61180310e-01	2.61247500e-03	2.18008560e-03	1.29724360e-03	0.00000000e+00
2.575          	1.08500920e-01	2.60466890e-03	2.17232730e-03	1.19892220e-03	0.00000000e+00
2.58           	1.40404070e-01	2.59687000e-03	2.16460060e-03	1.33148750e-03	0.00000000e+00
2.585          	8.91262390e-02	2.58907860e-03	2.15689650e-03	1.29641840e-03	0.00000000e+00
2.59           	1.68304940e-01	2.58129470e-03	2.14920870e-03	1.26849200e-03	0.00000000e+00
2.595          	2.04238100e-01	2.57351830e-03	2.14152680e-03	1.36893600e-03	0.00000000e+00
2.6            	8.88948020e-02	2.56574960e-03	2.13385400e-03	1.33199590e-03	0.00000000e+00
2.605          	1.60432790e-01	2.55798860e-03	2.12620040e-03	1.30764930e-03	0.00000000e+00
2.61           	1.86560450e-01	2.55023520e-03	2.11855140e-03	1.26940980e-03	0.00000000e+00
2.615          	1.33066500e-01	2.54248950e-03	2.11091100e-03	1.13801660e-03	0.00000000e+00
2.62           	1.70028770e-01	2.53475150e-03	2.10328080e-03	1.38904940e-03	0.00000000e+00
2.625          	1.50767080e-01	2.52702130e-03	2.09566100e-03	1.07077290e-03	0.00000000e+00
2.63           	1.37850710e-01	2.51926320e-03	2.08806450e-03	1.12289380e-03	0.00000000e+00
2.635          	2.02956000e-01	2.51151280e-03	2.08047050e-03	1.17282270e-03	0.00000000e+00
2.64           	1.63662430e-01	2.50377060e-03	2.07288450e-03	1.27271510e-03	0.00000000e+00
2.645          	8.10248120e-02	2.49603680e-03	2.06530850e-03	1.36323330e-03	0.00000000e+00
2.65           	9.50711070e-02	2.48831130e-03	2.05774310e-03	1.17635930e-03	0.00000000e+00
2.655          	1.46428570e-01	2.48059420e-03	2.05020570e-03	1.36859120e-03	0.00000000e+00
2.66           	2.67159550e-01	2.47288550e-03	2.04266770e-03	1.35087710e-03	0.00000000e+00
2.665          	1.46022020e-01	2.46518530e-03	2.03513680e-03	1.26286530e-03	0.00000000e+00
2.67           	1.92304980e-01	2.45749350e-03	2.02761560e-03	1.22865040e-03	0.00000000e+00
2.675          	9.44969930e-02	2.44981020e-03	2.02010500e-03	1.41083250e-03	0.00000000e+00
2.68           	1.78428150e-01	2.44213540e-03	2.01260530e-03	1.25061210e-03	0.00000000e+00
2.685          	1.59663030e-01	2.43445250e-03	2.00511650e-03	1.22265160e-03	0.00000000e+00
2.69           	1.65416080e-01	2.42676120e-03	1.99766300e-03	1.23944510e-03	0.00000000e+00
2.695          	2.43285310e-01	2.41907890e-03	1.99020440e-03	1.24789160e-03	0.00000000e+00
2.7            	1.26174480e-01	2.41140560e-03	1.98275150e-03	1.09064660e-03	0.00000000e+00
2.705          	1.28854540e-01	2.40374140e-03	1.97530800e-03	9.91407130e-04	0.00000000e+00
2.71           	1.09538620e-01	2.39608630e-03	1.96787490e-03	1.11402760e-03	0.00000000e+00
2.715          	1.02517710e-01	2.38844030e-03	1.96045280e-03	1.28701290e-03	0.00000000e+00
2.72           	1.73875750e-01	2.38080350e-03	1.95304180e-03	1.15122920e-03	0.00000000e+00
2.725          	2.58287820e-01	2.37317580e-03	1.94564200e-03	1.12412410e-03	0.00000000e+00
2.73           	7.21120340e-02	2.36555720e-03	1.93825340e-03	1.13841940e-03	0.00000000e+00
2.735          	1.60493920e-01	2.35794790e-03	1.93087610e-03	1.10499290e-03	0.00000000e+00
2.74           	2.35223820e-01	2.35034780e-03	1.92350990e-03	1.16336880e-03	0.00000000e+00
2.745          	1.61138080e-01	2.34275700e-03	1.91615510e-03	1.04914980e-03	0.00000000e+00
2.75           	1.19878700e-01	2.33517550e-03	1.90881160e-03	1.02029840e-03	0.00000000e+00
2.755          	1.62853840e-01	2.32760350e-03	1.90151460e-03	9.32288590e-04	0.00000000e+00
2.76           	1.61668940e-01	2.32004090e-03	1.89420530e-03	1.15617390e-03	0.00000000e+00
2.765          	1.15880740e-01	2.31248770e-03	1.88689960e-03	1.03143230e-03	0.00000000e+00
2.77           	1.21714810e-01	2.30494390e-03	1.87960250e-03	9.87218020e-04	0.00000000e+00
2.775          	9.66789610e-02	2.29740950e-03	1.87231590e-03	9.19661490e-04	0.00000000e+00
2.78           	1.91312710e-01	2.28988460e-03	1.86504050e-03	9.14576350e-04	0.00000000e+00
2.785          	1.77023370e-01	2.28236920e-03	1.85777630e-03	1.06425430e-03	0.00000000e+00
2.79           	1.61952130e-01	2.27486330e-03	1.85052350e-03	1.06290830e-03	0.00000000e+00
2.795          	2.20973350e-01	2.26736690e-03	1.84328210e-03	1.05261530e-03	0.00000000e+00
2.8            	2.30241730e-01	2.25988000e-03	1.83605220e-03	1.08365030e-03	0.00000000e+00
2.805          	1.11937850e-01	2.25240270e-03	1.82883370e-03	9.72126970e-04	0.00000000e+00
2.81           	1.02008070e-01	2.24493500e-03	1.82162670e-03	8.70797510e-04	0.00000000e+00
2.815          	1.99142330e-01	2.23747700e-03	1.81443120e-03	8.41125750e-04	0.00000000e+00
2.82           	2.00466790e-01	2.23002860e-03	1.80724720e-03	8.72962030e-04	0.00000000e+00
2.825          	2.53540380e-01	2.22258980e-03	1.80007470e-03	9.15976500e-04	0.00000000e+00
2.83           	3.03739760e-01	2.21516080e-03	1.79291370e-03	9.24892570e-04	0.00000000e+00
2.835          	2.36221000e-01	2.20774150e-03	1.78576430e-03	9.89771780e-04	0.00000000e+00
2.84           	1.87852080e-01	2.20033190e-03	1.77862640e-03	1.05286250e-03	0.00000000e+00
2.845          	1.09196300e-01	2.19293220e-03	1.77150010e-03	9.18291720e-04	0.00000000e+00
2.85           	1.62286300e-01	2.18554220e-03	1.76438530e-03	8.04882610e-04	0.00000000e+00
2.855          	1.76767220e-01	2.17816210e-03	1.75728220e-03	8.18793210e-04	0.00000000e+00
2.86           	2.90845360e-01	2.17079180e-03	1.75019060e-03	8.30476290e-04	0.00000000e+00
2.865          	7.53361150e-02	2.16343130e-03	1.74311070e-03	8.93937390e-04	0.00000000e+00
2.87           	8.46795450e-02	2.15608080e-03	1.73604240e-03	7.95531630e-04	0.00000000e+00
2.875          	3.82583480e-01	2.14874020e-03	1.72898570e-03	8.55118430e-04	0.00000000e+00
2.88           	8.05729280e-02	2.14140950e-03	1.72194060e-03	8.73719650e-04	0.00000000e+00
2.885          	6.32966980e-02	2.13408890e-03	1.71490720e-03	9.46073070e-04	0.00000000e+00
2.89           	1.38689270e-01	2.12677820e-03	1.70788370e-03	8.08661160e-04	0.00000000e+00
2.895          	9.30841790e-02	2.11918140e-03	1.70070570e-03	9.55938170e-04	0.00000000e+00
2.9            	1.89608810e-01	2.11179600e-03	1.69364220e-03	8.13969740e-04	0.00000000e+00
2.905          	1.76634650e-01	2.10448740e-03	1.68662490e-03	6.82995190e-04	0.00000000e+00
2.91           	3.54767770e-01	2.09721410e-03	1.67963110e-03	8.68812850e-04	0.00000000e+00
2.915          	2.70853730e-01	2.08995600e-03	1.67265740e-03	8.02210930e-04	0.00000000e+00
2.92           	3.09452090e-01	2.08270990e-03	1.66569410e-03	8.65772680e-04	0.00000000e+00
2.925          	1.72055590e-01	2.07547460e-03	1.65874210e-03	8.71538140e-04	0.00000000e+00
2.93           	2.62844750e-01	2.06825330e-03	1.65180200e-03	6.36021010e-04	0.00000000e+00
2.935          	1.30877290e-01	2.06103970e-03	1.64487380e-03	7.39581220e-04	0.00000000e+00
2.94           	1.75615960e-01	2.05383550e-03	1.63795760e-03	7.64275230e-04	0.00000000e+00
2.945          	3.07029950e-01	2.04664120e-03	1.63105330e-03	7.72106540e-04	0.00000000e+00
2.95           	1.82389050e-01	2.03946130e-03	1.62415950e-03	7.74854720e-04	0.00000000e+00
2.955          	1.65127250e-01	2.03228870e-03	1.61726510e-03	8.60607450e-04	0.00000000e+00
2.96           	8.76006040e-02	2.02512530e-03	1.61038880e-03	8.38200840e-04	0.00000000e+00
2.965          	1.46092060e-01	2.01797200e-03	1.60352060e-03	7.90898280e-04	0.00000000e+00
2.97           	9.21795220e-02	2.01082880e-03	1.59666330e-03	6.81686220e-04	0.00000000e+00
2.975          	2.90337260e-01	2.00369600e-03	1.58981770e-03	6.97700340e-04	0.00000000e+00
2.98           	1.89770150e-01	1.99657900e-03	1.58298420e-03	7.55408500e-04	0.00000000e+00
2.985          	1.43590200e-01	1.98946850e-03	1.57616270e-03	7.27495170e-04	0.00000000e+00
2.99           	3.97278620e-01	1.98236710e-03	1.56935340e-03	8.04934550e-04	0.00000000e+00
2.995          	1.09545270e-01	1.97527570e-03	1.56255630e-03	7.38727310e-04	0.00000000e+00
3              	9.64137870e-02	1.96819460e-03	1.55577130e-03	9.54595450e-04	0.00000000e+00
3.005          	2.07924280e-01	1.96112400e-03	1.54899850e-03	7.72685310e-04	0.00000000e+00
3.01           	1.28308430e-01	1.95406370e-03	1.54223790e-03	6.56341490e-04	0.00000000e+00
3.015          	1.78004590e-01	1.94701400e-03	1.53548940e-03	6.88847900e-04	0.00000000e+00
3.02           	1.37061350e-01	1.93997480e-03	1.52875310e-03	7.60423900e-04	0.00000000e+00
3.025          	1.27120710e-01	1.93295330e-03	1.52202890e-03	7.03824890e-04	0.00000000e+00
3.03           	2.03981170e-01	1.92593740e-03	1.51532520e-03	8.81545090e-04	0.00000000e+00
3.035          	1.51492140e-01	1.91893030e-03	1.50862800e-03	6.70486620e-04	0.00000000e+00
3.04           	1.21674740e-01	1.91193330e-03	1.50194110e-03	7.59504520e-04	0.00000000e+00
3.045          	2.23002750e-01	1.90494660e-03	1.49526570e-03	8.86064970e-04	0.00000000e+00
3.05           	1.38068120e-01	1.89797050e-03	1.48860230e-03	8.53914250e-04	0.00000000e+00
3.055          	1.14507310e-01	1.89100500e-03	1.48195090e-03	7.49376770e-04	0.00000000e+00
3.06           	1.66541600e-01	1.88405020e-03	1.47531160e-03	6.52850800e-04	0.00000000e+00
3.065          	1.33423580e-01	1.87710600e-03	1.46868440e-03	8.26151220e-04	0.00000000e+00
3.07           	1.43207620e-01	1.87017250e-03	1.46206930e-03	7.04402680e-04	0.00000000e+00
3.075          	3.14629430e-01	1.86324970e-03	1.45546630e-03	8.34946980e-04	0.00000000e+00
3.08           	1.31871720e-01	1.85633750e-03	1.44887540e-03	7.69204280e-04	0.00000000e+00
3.085          	1.26148210e-01	1.84943610e-03	1.44229660e-03	5.55490360e-04	0.00000000e+00
3.09           	8.94582600e-02	1.84254540e-03	1.43572990e-03	8.04744900e-04	0.00000000e+00
3.095          	1.72004210e-01	1.83567530e-03	1.42917530e-03	5.59694780e-04	0.00000000e+00
3.1            	2.76009500e-01	1.82880910e-03	1.42263280e-03	4.42257000e-04	0.00000000e+00
3.105          	1.58963160e-01	1.82195140e-03	1.41610230e-03	4.96464950e-04	0.00000000e+00
3.11           	1.49316280e-01	1.81510370e-03	1.40958390e-03	5.63376470e-04	0.00000000e+00
3.115          	1.83440410e-01	1.80826660e-03	1.40307760e-03	6.35646370e-04	0.00000000e+00
3.12           	6.65849350e-02	1.80144020e-03	1.39658330e-03	5.88322600e-04	0.00000000e+00
3.125          	3.43272160e-01	1.79462460e-03	1.39010110e-03	4.99346390e-04	0.00000000e+00
3.13           	1.04615470e-01	1.78781980e-03	1.38367810e-03	6.06591550e-04	0.00000000e+00
3.135          	3.07092590e-01	1.78102610e-03	1.37723530e-03	5.06988850e-04	0.00000000e+00
3.14           	2.48926040e-01	1.77424330e-03	1.37079390e-03	3.83520190e-04	0.00000000e+00
3.145          	1.89101820e-01	1.76747140e-03	1.36436100e-03	6.07351650e-04	0.00000000e+00
3.15           	6.47445490e-02	1.76071040e-03	1.35793890e-03	5.76695810e-04	0.00000000e+00
3.155          	1.48855070e-01	1.75396040e-03	1.35152840e-03	5.05874140e-04	0.00000000e+00
3.16           	9.59615880e-02	1.74722120e-03	1.34512970e-03	4.64999070e-04	0.00000000e+00
3.165          	1.91930680e-01	1.74049290e-03	1.33874300e-03	4.86588370e-04	0.00000000e+00
3.17           	1.57801780e-01	1.73377560e-03	1.33236820e-03	4.43979370e-04	0.00000000e+00
3.175          	2.07272660e-01	1.72706920e-03	1.32600530e-03	3.56335710e-04	0.00000000e+00
3.18           	3.03367520e-01	1.72037370e-03	1.31965440e-03	4.88736070e-04	0.00000000e+00
3.185          	1.52406120e-01	1.71368920e-03	1.31331540e-03	5.92418070e-04	0.00000000e+00
3.19           	1.73984300e-01	1.70701570e-03	1.30698830e-03	5.82080440e-04	0.00000000e+00
3.195          	1.10090230e-01	1.70035320e-03	1.30067320e-03	5.09667610e-04	0.00000000e+00
3.2            	1.69334170e-01	1.69370160e-03	1.29437000e-03	5.38235910e-04	0.00000000e+00
3.205          	3.90682780e-01	1.68706110e-03	1.28807870e-03	4.22660030e-04	0.00000000e+00
3.21           	1.09233890e-01	1.68044550e-03	1.28179930e-03	5.09275440e-04	0.00000000e+00
3.215          	7.74464350e-02	1.67383120e-03	1.27553170e-03	5.58519170e-04	0.00000000e+00
3.22           	6.49992770e-02	1.66722480e-03	1.26927610e-03	4.58211360e-04	0.00000000e+00
3.225          	2.05072860e-01	1.66062830e-03	1.26303230e-03	5.33872660e-04	0.00000000e+00
3.23           	3.12648490e-01	1.65404260e-03	1.25680040e-03	4.16124670e-04	0.00000000e+00
3.235          	1.85974390e-01	1.64746780e-03	1.25058030e-03	4.58821040e-04	0.00000000e+00
3.24           	2.16379530e-01	1.64090400e-03	1.24437200e-03	4.79854080e-04	0.00000000e+00
3.245          	2.70588490e-01	1.63435120e-03	1.23817560e-03	4.01258340e-04	0.00000000e+00
3.25           	7.63700570e-02	1.62780960e-03	1.23199100e-03	4.58986770e-04	0.00000000e+00
3.255          	1.33810060e-01	1.62127900e-03	1.22581820e-03	4.11775100e-04	0.00000000e+00
3.26           	1.50615670e-01	1.61475960e-03	1.21965720e-03	4.09370810e-04	0.00000000e+00
3.265          	1.26563180e-01	1.60825120e-03	1.21350790e-03	4.88565670e-04	0.00000000e+00
3.27           	1.69371990e-01	1.60175390e-03	1.20737040e-03	4.41277580e-04	0.00000000e+00
3.275          	1.50230170e-01	1.59526780e-03	1.20124470e-03	4.32667320e-04	0.00000000e+00
3.28           	7.58362900e-02	1.58879280e-03	1.19513070e-03	4.57934740e-04	0.00000000e+00
3.285          	1.55370740e-01	1.58232890e-03	1.18902850e-03	5.44300070e-04	0.00000000e+00
3.29           	9.10784200e-02	1.57587610e-03	1.18293800e-03	4.87642020e-04	0.00000000e+00
3.295          	1.95593860e-01	1.56943450e-03	1.17685920e-03	5.23630460e-04	0.00000000e+00
3.3            	1.76399320e-01	1.56300400e-03	1.17079200e-03	4.74051050e-04	0.00000000e+00
3.305          	1.16299930e-01	1.55658470e-03	1.16473660e-03	4.85052470e-04	0.00000000e+00
3.31           	6.93260020e-02	1.55017650e-03	1.15869280e-03	5.89877070e-04	0.00000000e+00
3.315          	1.24891000e-01	1.54377950e-03	1.15266070e-03	5.52608130e-04	0.00000000e+00
3.32           	3.21562770e-01	1.53739370e-03	1.14664020e-03	4.57906230e-04	0.00000000e+00
3.325          	1.03419340e-01	1.53101900e-03	1.14063130e-03	5.08042100e-04	0.00000000e+00
3.33           	1.06628850e-01	1.52465560e-03	1.13463410e-03	5.66318220e-04	0.00000000e+00
3.335          	2.00182370e-01	1.51830320e-03	1.12864840e-03	4.63539660e-04	0.00000000e+00
3.34           	1.08614930e-01	1.51196210e-03	1.12267430e-03	4.15168530e-04	0.00000000e+00
3.345          	3.07533380e-01	1.50563220e-03	1.11671190e-03	4.51444550e-04	0.00000000e+00
3.35           	1.02551630e-01	1.49930400e-03	1.11076090e-03	5.72596330e-04	0.00000000e+00
3.355          	1.73216770e-01	1.49299840e-03	1.10485060e-03	3.96437210e-04	0.00000000e+00
3.36           	1.46839510e-01	1.48670680e-03	1.09893230e-03	4.75431150e-04	0.00000000e+00
3.365          	9.36798980e-02	1.48042770e-03	1.09301890e-03	5.85398020e-04	0.00000000e+00
3.37           	7.94621840e-02	1.47416010e-03	1.08711480e-03	5.52033190e-04	0.00000000e+00
3.375          	3.34941130e-01	1.46790430e-03	1.08122140e-03	4.78752620e-04	0.00000000e+00
3.38           	8.48418090e-02	1.46165930e-03	1.07533930e-03	4.96541580e-04	0.00000000e+00
3.385          	1.60138060e-01	1.45542540e-03	1.06946850e-03	3.94433790e-04	0.00000000e+00
3.39           	3.07680950e-01	1.44920210e-03	1.06360920e-03	5.48164060e-04	0.00000000e+00
3.395          	2.59636870e-01	1.44299060e-03	1.05776120e-03	3.73942340e-04	0.00000000e+00
3.4            	1.10241910e-01	1.43679010e-03	1.05192470e-03	4.40299320e-04	0.00000000e+00
3.405          	1.21988240e-01	1.43060060e-03	1.04609950e-03	4.40729720e-04	0.00000000e+00
3.41           	1.54168650e-01	1.42442170e-03	1.04028570e-03	2.93730670e-04	0.00000000e+00
3.415          	9.79433230e-02	1.41825470e-03	1.03448330e-03	3.66500110e-04	0.00000000e+00
3.42           	2.92321350e-01	1.41209860e-03	1.02869220e-03	3.02603350e-04	0.00000000e+00
3.425          	1.51579330e-01	1.40595320e-03	1.02291250e-03	3.47411390e-04	0.00000000e+00
3.43           	2.83048340e-01	1.39981920e-03	1.01714410e-03	3.55235890e-04	0.00000000e+00
3.435          	2.80580110e-01	1.39369640e-03	1.01138700e-03	3.38703390e-04	0.00000000e+00
3.44           	1.02668320e-01	1.38758510e-03	1.00564110e-03	3.32240390e-04	0.00000000e+00
3.445          	3.64452670e-01	1.38148440e-03	9.99906570e-04	2.83467170e-04	0.00000000e+00
3.45           	4.77522080e-02	1.37539530e-03	9.94183260e-04	2.22069450e-04	0.00000000e+00
3.455          	1.93659430e-01	1.36931720e-03	9.88471190e-04	2.52258510e-04	0.00000000e+00
3.46           	1.22731330e-01	1.36324980e-03	9.82770350e-04	2.34499760e-04	0.00000000e+00
3.465          	1.41960110e-01	1.35719370e-03	9.77080710e-04	1.85797160e-04	0.00000000e+00
3.47           	5.41729860e-01	1.35114930e-03	9.71402270e-04	2.37975830e-04	0.00000000e+00
3.475          	1.20618120e-01	1.34511540e-03	9.65734990e-04	3.70369010e-04	0.00000000e+00
3.48           	7.34595970e-02	1.33909280e-03	9.60078880e-04	3.66319070e-04	0.00000000e+00
3.485          	1.92159880e-01	1.33308190e-03	9.54433910e-04	3.63216560e-04	0.00000000e+00
3.49           	3.69228740e-01	1.32708140e-03	9.48800070e-04	3.08888990e-04	0.00000000e+00
3.495          	9.15304640e-02	1.32109270e-03	9.43177330e-04	2.96456980e-04	0.00000000e+00
3.5            	1.00280430e-01	1.31511450e-03	9.37565690e-04	2.76295200e-04	0.00000000e+00
3.505          	7.87401570e-02	1.30914800e-03	9.31965120e-04	4.19056330e-04	0.00000000e+00
3.51           	2.13303480e-01	1.30319220e-03	9.26375620e-04	3.55748240e-04	0.00000000e+00
3.515          	1.10361110e-01	1.29724770e-03	9.20797150e-04	3.61199520e-04	0.00000000e+00
3.52           	2.19992910e-01	1.29131430e-03	9.15229710e-04	2.97748030e-04	0.00000000e+00
3.525          	2.02482750e-01	1.28539220e-03	9.09673280e-04	3.17554900e-04	0.00000000e+00
3.53           	1.28414720e-01	1.27948120e-03	9.04127840e-04	3.98261780e-04	0.00000000e+00
3.535          	8.30421560e-02	1.27358140e-03	8.98593380e-04	4.47321710e-04	0.00000000e+00
3.54           	9.34302120e-02	1.26769300e-03	8.93069880e-04	3.52239920e-04	0.00000000e+00
3.545          	8.33543470e-02	1.26181530e-03	8.87557310e-04	4.08506240e-04	0.00000000e+00
3.55           	1.75193390e-01	1.25594880e-03	8.82055670e-04	3.44018620e-04	0.00000000e+00
3.555          	3.45968470e-01	1.25009380e-03	8.76564930e-04	3.40555690e-04	0.00000000e+00
3.56           	1.34971830e-01	1.24424950e-03	8.71085090e-04	3.57202740e-04	0.00000000e+00
3.565          	2.31413380e-01	1.23841680e-03	8.65616110e-04	4.42696540e-04	0.00000000e+00
3.57           	9.72531530e-02	1.23259470e-03	8.60158000e-04	4.68511350e-04	0.00000000e+00
3.575          	1.06531930e-01	1.22678430e-03	8.54710710e-04	4.59509530e-04	0.00000000e+00
3.58           	1.25617730e-01	1.22098480e-03	8.49274250e-04	3.64964390e-04	0.00000000e+00
3.585          	1.08132660e-01	1.21519610e-03	8.43848590e-04	3.73368560e-04	0.00000000e+00
3.59           	1.34040610e-01	1.20941870e-03	8.38433710e-04	3.75822610e-04	0.00000000e+00
3.595          	6.20659630e-02	1.20365280e-03	8.33029610e-04	4.71484290e-04	0.00000000e+00
3.6            	1.37164020e-01	1.19789750e-03	8.27636250e-04	4.58999840e-04	0.00000000e+00
3.605          	9.85176610e-02	1.19215390e-03	8.22253620e-04	4.65233460e-04	0.00000000e+00
3.61           	1.29789410e-01	1.18642090e-03	8.16881710e-04	4.92156520e-04	0.00000000e+00
3.615          	1.43695000e-01	1.18069910e-03	8.11520500e-04	4.18201460e-04	0.00000000e+00
3.62           	1.14680600e-01	1.17498890e-03	8.06169960e-04	4.07960360e-04	0.00000000e+00
3.625          	3.05212880e-01	1.16928920e-03	8.00830090e-04	3.84340330e-04	0.00000000e+00
3.63           	9.82696830e-02	1.16360080e-03	7.95500860e-04	4.25953730e-04	0.00000000e+00
3.635          	2.21969250e-01	1.15792360e-03	7.90182260e-04	4.48114480e-04	0.00000000e+00
3.64           	1.44829030e-01	1.15225750e-03	7.84874270e-04	4.80002880e-04	0.00000000e+00
3.645          	1.98875530e-01	1.14660280e-03	7.79576870e-04	4.13826290e-04	0.00000000e+00
3.65           	1.26229070e-01	1.14095900e-03	7.74290040e-04	4.77622810e-04	0.00000000e+00
3.655          	4.04821950e-01	1.13532620e-03	7.69013770e-04	3.65505640e-04	0.00000000e+00
3.66           	1.16074030e-01	1.12970420e-03	7.63748040e-04	3.58140900e-04	0.00000000e+00
3.665          	1.40212470e-01	1.12380730e-03	7.58492830e-04	4.13170420e-04	0.00000000e+00
3.67           	9.23270690e-02	1.11811300e-03	7.53248120e-04	3.93610580e-04	0.00000000e+00
3.675          	7.92247620e-02	1.11249700e-03	7.48013890e-04	4.75119460e-04	0.00000000e+00
3.68           	9.38485540e-02	1.10691080e-03	7.42790140e-04	3.98593890e-04	0.00000000e+00
3.685          	3.53369070e-01	1.10134640e-03	7.37576830e-04	4.03564070e-04	0.00000000e+00
3.69           	3.14008960e-01	1.09579210e-03	7.32373960e-04	4.11268210e-04	0.00000000e+00
3.695          	2.01513900e-01	1.09024850e-03	7.27181500e-04	4.71772390e-04	0.00000000e+00
3.7            	1.41889800e-01	1.08471600e-03	7.21999430e-04	4.64772210e-04	0.00000000e+00
3.705          	1.53535730e-01	1.07919990e-03	7.16827750e-04	3.51660240e-04	0.00000000e+00
3.71           	9.92834100e-02	1.07369110e-03	7.11666430e-04	4.22703940e-04	0.00000000e+00
3.715          	1.23191430e-01	1.06819220e-03	7.06515450e-04	3.69827440e-04	0.00000000e+00
3.72           	2.80711140e-01	1.06270390e-03	7.01374790e-04	3.92043710e-04	0.00000000e+00
3.725          	1.05624290e-01	1.05723330e-03	6.96244450e-04	5.19022460e-04	0.00000000e+00
3.73           	1.60401620e-01	1.05176910e-03	6.91124390e-04	3.77982200e-04	0.00000000e+00
3.735          	1.98834390e-01	1.04631430e-03	6.86014610e-04	3.17500280e-04	0.00000000e+00
3.74           	1.14848100e-01	1.04087000e-03	6.80915080e-04	3.33659120e-04	0.00000000e+00
3.745          	1.80903530e-01	1.03543660e-03	6.75825790e-04	4.82296650e-04	0.00000000e+00
3.75           	9.78651410e-02	1.03002290e-03	6.70746730e-04	3.42067610e-04	0.00000000e+00
3.755          	1.58552600e-01	1.02461420e-03	6.65677860e-04	4.22283480e-04	0.00000000e+00
3.76           	1.19024120e-01	1.01921450e-03	6.60619180e-04	3.75930450e-04	0.00000000e+00
3.765          	5.72733750e-02	1.01382520e-03	6.55570670e-04	4.25073590e-04	0.00000000e+00
3.77           	1.50464670e-01	1.00844670e-03	6.50532300e-04	3.52269800e-04	0.00000000e+00
3.775          	1.04434360e-01	1.00307910e-03	6.45504070e-04	4.07266130e-04	0.00000000e+00
3.78           	1.36106130e-01	9.97722460e-04	6.40485960e-04	3.39134350e-04	0.00000000e+00
3.785          	2.02065870e-01	9.92388180e-04	6.35477940e-04	2.56490030e-04	0.00000000e+00
3.79           	8.05371280e-02	9.87057110e-04	6.30480000e-04	3.53729940e-04	0.00000000e+00
3.795          	1.03246290e-01	9.81734430e-04	6.25492120e-04	3.27758410e-04	0.00000000e+00
3.8            	1.17028770e-01	9.76421870e-04	6.20514290e-04	4.09872070e-04	0.00000000e+00
3.805          	1.22410210e-01	9.71120000e-04	6.15546490e-04	2.56360390e-04	0.00000000e+00
3.81           	1.50390350e-01	9.65829010e-04	6.10588700e-04	4.10739380e-04	0.00000000e+00
3.815          	1.70085110e-01	9.60548960e-04	6.05640910e-04	2.76621920e-04	0.00000000e+00
3.82           	7.35395680e-02	9.55279850e-04	6.00703090e-04	3.11109630e-04	0.00000000e+00
3.825          	1.53340600e-01	9.50021700e-04	5.95775230e-04	3.57342610e-04	0.00000000e+00
3.83           	1.28523570e-01	9.44789410e-04	5.90857310e-04	3.81349690e-04	0.00000000e+00
3.835          	3.63974350e-01	9.39557850e-04	5.85949310e-04	3.51082300e-04	0.00000000e+00
3.84           	9.16937920e-02	9.34333830e-04	5.81051230e-04	3.84803810e-04	0.00000000e+00
3.845          	1.02121930e-01	9.29119610e-04	5.76163040e-04	4.04459670e-04	0.00000000e+00
3.85           	1.50315130e-01	9.23915940e-04	5.71284720e-04	3.64726850e-04	0.00000000e+00
3.855          	1.64604530e-01	9.18723070e-04	5.66416250e-04	3.45775960e-04	0.00000000e+00
3.86           	1.11142060e-01	9.13541060e-04	5.61557630e-04	3.97568970e-04	0.00000000e+00
3.865          	3.78449680e-01	9.08369950e-04	5.56708830e-04	3.97086300e-04	0.00000000e+00
3.87           	2.39732090e-01	9.03209730e-04	5.51869840e-04	3.69585750e-04	0.00000000e+00
3.875          	1.37010470e-01	8.98060410e-04	5.47040640e-04	3.93717020e-04	0.00000000e+00
3.88           	8.64069000e-02	8.92921970e-04	5.42221210e-04	4.96191550e-04	0.00000000e+00
3.885          	2.00969390e-01	8.87794410e-04	5.37411540e-04	5.36130320e-04	0.00000000e+00
3.89           	2.06996210e-01	8.82697810e-04	5.32611610e-04	3.70141010e-04	0.00000000e+00
3.895          	1.06700700e-01	8.77598370e-04	5.27821400e-04	4.12575180e-04	0.00000000e+00
3.9            	1.85522220e-01	8.72505240e-04	5.23040890e-04	4.02235290e-04	0.00000000e+00
3.905          	9.96345940e-02	8.67421440e-04	5.18270080e-04	3.89141680e-04	0.00000000e+00
3.91           	1.18518700e-01	8.62347980e-04	5.13508940e-04	3.85870910e-04	0.00000000e+00
3.915          	1.79998320e-01	8.57285200e-04	5.08757460e-04	3.59496710e-04	0.00000000e+00
3.92           	1.36688060e-01	8.52233200e-04	5.04015630e-04	4.89414140e-04	0.00000000e+00
3.925          	8.75458600e-02	8.47192000e-04	4.99283410e-04	4.37281420e-04	0.00000000e+00
3.93           	1.01696310e-01	8.42161630e-04	4.94560810e-04	3.88703160e-04	0.00000000e+00
3.935          	1.62399260e-01	8.37142060e-04	4.89847800e-04	3.80969680e-04	0.00000000e+00
3.94           	1.03523980e-01	8.32133300e-04	4.85144360e-04	3.53459030e-04	0.00000000e+00
3.945          	3.86721310e-01	8.27135340e-04	4.80450490e-04	3.56896010e-04	0.00000000e+00
3.95           	1.22047680e-01	8.22148170e-04	4.75766160e-04	3.82581660e-04	0.00000000e+00
3.955          	1.44006450e-01	8.17171790e-04	4.71091360e-04	3.34346720e-04	0.00000000e+00
3.96           	1.07112840e-01	8.12206180e-04	4.66426070e-04	3.50383970e-04	0.00000000e+00
3.965          	7.59974830e-02	8.07251350e-04	4.61770280e-04	3.26215210e-04	0.00000000e+00
3.97           	2.10731690e-01	8.02307270e-04	4.57123970e-04	4.67581950e-04	0.00000000e+00
3.975          	1.16681420e-01	7.97373960e-04	4.52487130e-04	2.65019550e-04	0.00000000e+00
3.98           	4.92673420e-02	7.92478280e-04	4.47859730e-04	3.38849690e-04	0.00000000e+00
3.985          	9.92239940e-02	7.87575070e-04	4.43241780e-04	4.15516740e-04	0.00000000e+00
3.99           	3.47571670e-01	7.82676520e-04	4.38633240e-04	3.12571400e-04	0.00000000e+00
3.995          	2.22760080e-01	7.77786670e-04	4.34034100e-04	2.92650230e-04	0.00000000e+00
4              	4.95343340e-01	7.72906880e-04	4.29444360e-04	3.25383350e-04	0.00000000e+00
4.005          	1.49880690e-01	7.68037570e-04	4.24863990e-04	3.72675580e-04	0.00000000e+00
4.01           	2.84983840e-01	7.63178910e-04	4.20292970e-04	3.81677910e-04	0.00000000e+00
4.015          	2.17581170e-01	7.58330920e-04	4.15731300e-04	3.01519040e-04	0.00000000e+00
4.02           	2.66390390e-01	7.53493620e-04	4.11178960e-04	2.63161430e-04	0.00000000e+00
4.025          	2.75954350e-01	7.48667000e-04	4.06635930e-04	2.98036140e-04	0.00000000e+00
4.03           	1.43067530e-01	7.43851070e-04	4.02102200e-04	2.14703000e-04	0.00000000e+00
4.035          	1.16393030e-01	7.39045810e-04	3.97577750e-04	2.34926650e-04	0.00000000e+00
4.04           	1.42485160e-01	7.34251210e-04	3.93062570e-04	2.43737150e-04	0.00000000e+00
4.045          	1.18857350e-01	7.29467270e-04	3.88556650e-04	2.20367310e-04	0.00000000e+00
4.05           	1.37382650e-01	7.24693990e-04	3.84059960e-04	1.71730570e-04	0.00000000e+00
4.055          	1.15442490e-01	7.19931340e-04	3.79572500e-04	2.17315500e-04	0.00000000e+00
4.06           	9.57785460e-02	7.15179340e-04	3.75094250e-04	3.12663750e-04	0.00000000e+00
4.065          	1.78310030e-01	7.10437960e-04	3.70625190e-04	2.56455620e-04	0.00000000e+00
4.07           	1.32299840e-01	7.05707210e-04	3.66165320e-04	2.67722640e-04	0.00000000e+00
4.075          	9.00475440e-02	7.00987070e-04	3.61714620e-04	2.93147490e-04	0.00000000e+00
4.08           	1.27019890e-01	6.96277530e-04	3.57273060e-04	2.85049790e-04	0.00000000e+00
4.085          	9.20736130e-02	6.91578600e-04	3.52840650e-04	3.34577010e-04	0.00000000e+00
4.09           	1.76635040e-01	6.86890250e-04	3.48417360e-04	2.65840400e-04	0.00000000e+00
4.095          	8.63610530e-02	6.82212500e-04	3.44003190e-04	2.60511300e-04	0.00000000e+00
4.1            	1.46313320e-01	6.77545310e-04	3.39598110e-04	2.98542320e-04	0.00000000e+00
4.105          	2.12353040e-01	6.72888700e-04	3.35202110e-04	3.32395410e-04	0.00000000e+00
4.11           	1.66577160e-01	6.68242650e-04	3.30815190e-04	3.12508990e-04	0.00000000e+00
4.115          	1.01255570e-01	6.63607160e-04	3.26437320e-04	3.14927390e-04	0.00000000e+00
4.12           	3.14300650e-01	6.58982220e-04	3.22068490e-04	3.34273970e-04	0.00000000e+00
4.125          	1.62193800e-01	6.54404370e-04	3.17708690e-04	2.38780030e-04	0.00000000e+00
4.13           	1.18986990e-01	6.49812300e-04	3.13357910e-04	2.23164760e-04	0.00000000e+00
4.135          	1.89920490e-01	6.45222530e-04	3.09016140e-04	2.25404940e-04	0.00000000e+00
4.14           	9.31014540e-02	6.40640530e-04	3.04683350e-04	2.54725750e-04	0.00000000e+00
4.145          	1.97484220e-01	6.36068140e-04	3.00359530e-04	1.86700250e-04	0.00000000e+00
4.15           	1.32678340e-01	6.31505950e-04	2.96044690e-04	2.22176270e-04	0.00000000e+00
4.155          	8.89061690e-02	6.26954160e-04	2.91738790e-04	1.73897390e-04	0.00000000e+00
4.16           	1.10334170e-01	6.22412830e-04	2.87441830e-04	2.43757810e-04	0.00000000e+00
4.165          	1.00370650e-01	6.17881970e-04	2.83153790e-04	1.73404960e-04	0.00000000e+00
4.17           	1.34169020e-01	6.13361600e-04	2.78874670e-04	1.85476240e-04	0.00000000e+00
4.175          	3.48811290e-01	6.08851690e-04	2.74604440e-04	1.20014420e-04	0.00000000e+00
4.18           	2.74610320e-01	6.04352250e-04	2.70343110e-04	1.00543420e-04	0.00000000e+00
4.185          	1.34208350e-01	5.99863260e-04	2.66090640e-04	1.30569300e-04	0.00000000e+00
4.19           	1.91452500e-01	5.95384730e-04	2.61847040e-04	1.22749090e-04	0.00000000e+00
4.195          	1.56165400e-01	5.90916640e-04	2.57612290e-04	9.80406860e-05	0.00000000e+00
4.2            	2.10744720e-01	5.86458980e-04	2.53386380e-04	1.20423590e-04	0.00000000e+00
4.205          	6.05668080e-02	5.82011750e-04	2.49169290e-04	1.44932400e-04	0.00000000e+00
4.21           	1.01931720e-01	5.77574950e-04	2.44961020e-04	1.45527760e-04	0.00000000e+00
4.215          	7.33890140e-02	5.73148560e-04	2.40761550e-04	2.17700520e-04	0.00000000e+00
4.22           	1.62768780e-01	5.68732570e-04	2.36570870e-04	1.36417310e-04	0.00000000e+00
4.225          	1.79746770e-01	5.64326990e-04	2.32388960e-04	1.94229630e-04	0.00000000e+00
4.23           	2.18747950e-01	5.59931800e-04	2.28215830e-04	1.79711030e-04	0.00000000e+00
4.235          	1.17983340e-01	5.55546990e-04	2.24051440e-04	1.83377620e-04	0.00000000e+00
4.24           	2.08926340e-01	5.51172570e-04	2.19895810e-04	1.46113490e-04	0.00000000e+00
4.245          	1.99234960e-01	5.46808510e-04	2.15748900e-04	1.83133260e-04	0.00000000e+00
4.25           	1.23198300e-01	5.42454820e-04	2.11610710e-04	1.17134390e-04	0.00000000e+00
4.255          	1.12475270e-01	5.38111490e-04	2.07481240e-04	1.75052860e-04	0.00000000e+00
4.26           	8.35266360e-02	5.33778500e-04	2.03360460e-04	1.29475110e-04	0.00000000e+00
4.265          	1.66398620e-01	5.29455860e-04	1.99248370e-04	1.71864910e-04	0.00000000e+00
4.27           	2.78272730e-01	5.25143560e-04	1.95144960e-04	1.58552540e-04	0.00000000e+00
4.275          	1.32414650e-01	5.20841580e-04	1.91050210e-04	1.84220210e-04	0.00000000e+00
4.28           	1.08317720e-01	5.16549930e-04	1.86964120e-04	1.00973570e-04	0.00000000e+00
4.285          	1.02926270e-01	5.12268590e-04	1.82886670e-04	1.30864830e-04	0.00000000e+00
4.29           	3.22244380e-01	5.07997560e-04	1.78817860e-04	1.03481040e-04	0.00000000e+00
4.295          	1.00614610e-01	5.03736830e-04	1.74757670e-04	9.95904450e-05	0.00000000e+00
4.3            	9.30876480e-02	4.99486400e-04	1.70706090e-04	1.43181000e-04	0.00000000e+00
4.305          	2.15013280e-01	4.95246250e-04	1.66663120e-04	1.52513590e-04	0.00000000e+00
4.31           	1.91647460e-01	4.91016380e-04	1.62628740e-04	1.44480030e-04	0.00000000e+00
4.315          	2.82284360e-01	4.86796790e-04	1.58602940e-04	1.74425450e-04	0.00000000e+00
4.32           	1.15032490e-01	4.82587470e-04	1.54585710e-04	1.02971420e-04	0.00000000e+00
4.325          	6.44505970e-02	4.78388400e-04	1.50577050e-04	1.02312420e-04	0.00000000e+00
4.33           	7.47578750e-02	4.74199590e-04	1.46576940e-04	9.19411220e-05	0.00000000e+00
4.335          	2.38977170e-01	4.70021030e-04	1.42585370e-04	1.48142310e-04	0.00000000e+00
4.34           	9.35087810e-02	4.65852700e-04	1.38602330e-04	1.11781530e-04	0.00000000e+00
4.345          	2.90420820e-01	4.61694610e-04	1.34627820e-04	1.44611040e-04	0.00000000e+00
4.35           	7.93326730e-02	4.57546750e-04	1.30661830e-04	1.32524840e-04	0.00000000e+00
4.355          	1.27985020e-01	4.53409100e-04	1.26704340e-04	1.35511470e-04	0.00000000e+00
4.36           	2.18292210e-01	4.49281670e-04	1.22755340e-04	1.35311220e-04	0.00000000e+00
4.365          	8.54602050e-02	4.45164450e-04	1.18814830e-04	1.26318910e-04	0.00000000e+00
4.37           	1.51079520e-01	4.41057430e-04	1.14882800e-04	8.64370910e-05	0.00000000e+00
4.375          	7.21110970e-02	4.36960600e-04	1.10959240e-04	1.30140440e-04	0.00000000e+00
4.38           	9.79213650e-02	4.32873950e-04	1.07044140e-04	1.85458250e-04	0.00000000e+00
4.385          	1.69402600e-01	4.28797490e-04	1.03137490e-04	1.09866920e-04	0.00000000e+00
4.39           	1.51937570e-01	4.24731200e-04	9.92392800e-05	1.53665450e-04	0.00000000e+00
4.395          	2.43055120e-01	4.20675080e-04	9.53495050e-05	1.74954000e-04	0.00000000e+00
4.4            	1.92645780e-01	4.16629120e-04	9.14681560e-05	1.60774000e-04	0.00000000e+00
4.405          	2.31539720e-01	4.12593320e-04	8.75952230e-05	1.48812870e-04	0.00000000e+00
4.41           	9.83534790e-02	4.08567660e-04	8.37306990e-05	1.62806640e-04	0.00000000e+00
4.415          	1.40723630e-01	4.04552150e-04	7.98745760e-05	1.55162560e-04	0.00000000e+00
4.42           	2.33165390e-01	4.00546770e-04	7.60268450e-05	1.75257150e-04	0.00000000e+00
4.425          	1.05391350e-01	3.96551520e-04	7.21874980e-05	1.90901990e-04	0.00000000e+00
4.43           	1.56786280e-01	3.92566400e-04	6.83565280e-05	1.44768630e-04	0.00000000e+00
4.435          	1.05552210e-01	3.88591390e-04	6.45339260e-05	1.94728440e-04	0.00000000e+00
4.44           	1.98156640e-01	3.84626490e-04	6.07196860e-05	1.65640150e-04	0.00000000e+00
4.445          	2.22583600e-01	3.80671690e-04	5.69137980e-05	1.99172010e-04	0.00000000e+00
4.45           	1.11137690e-01	3.76727000e-04	5.31162560e-05	1.77592990e-04	0.00000000e+00
4.455          	1.34705060e-01	3.72792400e-04	4.93270520e-05	1.78748660e-04	0.00000000e+00
4.46           	8.17967130e-02	3.68867880e-04	4.55461800e-05	2.07581090e-04	0.00000000e+00
4.465          	1.04022210e-01	3.64953440e-04	4.17736310e-05	1.69897970e-04	0.00000000e+00
4.47           	1.33608250e-01	3.61049080e-04	3.80093980e-05	1.93601090e-04	0.00000000e+00
4.475          	2.05520670e-01	3.57154780e-04	3.42534750e-05	1.91380800e-04	0.00000000e+00
4.48           	8.04100000e-02	3.53270550e-04	3.05058540e-05	1.92070190e-04	0.00000000e+00
4.485          	1.03900950e-01	3.49396370e-04	2.67665290e-05	2.27000860e-04	0.00000000e+00
4.49           	1.76216480e-01	3.45532240e-04	2.30354930e-05	2.33718880e-04	0.00000000e+00
4.495          	9.25424050e-02	3.41678150e-04	1.93127390e-05	2.40044900e-04	0.00000000e+00
4.5            	1.07291260e-01	3.37834100e-04	1.55982610e-05	2.11439640e-04	0.00000000e+00
4.505          	9.63555490e-02	3.34000090e-04	1.19057820e-05	2.01694480e-04	0.00000000e+00
4.51           	2.36998360e-01	3.30176100e-04	8.57798850e-06	1.94516260e-04	0.00000000e+00
4.515          	1.08672120e-01	3.26362130e-04	6.13283480e-06	1.90625760e-04	0.00000000e+00
4.52           	1.98123950e-01	3.22558170e-04	4.76002490e-06	1.62115170e-04	0.00000000e+00
4.525          	2.47477620e-01	3.18764190e-04	4.74518500e-06	1.87411530e-04	0.00000000e+00
4.53           	1.97326520e-01	3.14980180e-04	7.07186450e-06	1.29596740e-04	0.00000000e+00
4.535          	9.76126610e-02	3.11206160e-04	1.06535290e-05	1.35089550e-04	0.00000000e+00
4.54           	1.94755880e-01	3.07442130e-04	1.42278130e-05	1.18687220e-04	0.00000000e+00
4.545          	1.85368240e-01	3.03688090e-04	1.77942750e-05	1.51122580e-04	0.00000000e+00
4.55           	5.30031710e-02	2.99944030e-04	2.13768250e-05	1.12641630e-04	0.00000000e+00
4.555          	9.97242410e-02	2.96209950e-04	2.49810680e-05	1.57901340e-04	0.00000000e+00
4.56           	1.76957970e-01	2.92485840e-04	2.85771320e-05	1.56046060e-04	0.00000000e+00
4.565          	1.17710220e-01	2.88771690e-04	3.21650300e-05	1.38456370e-04	0.00000000e+00
4.57           	9.89228410e-02	2.85067500e-04	3.57447720e-05	9.33740510e-05	0.00000000e+00
4.575          	1.62967890e-01	2.81373270e-04	3.93163650e-05	1.01914010e-04	0.00000000e+00
4.58           	3.03427110e-01	2.77688990e-04	4.28798130e-05	1.12950310e-04	0.00000000e+00
4.585          	6.79548860e-02	2.74014650e-04	4.64351230e-05	1.33526910e-04	0.00000000e+00
4.59           	1.14137450e-01	2.70350240e-04	4.99823000e-05	1.19515830e-04	0.00000000e+00
4.595          	7.72277030e-02	2.66695770e-04	5.35213490e-05	1.42655130e-04	0.00000000e+00
4.6            	1.61709270e-01	2.63051230e-04	5.70522750e-05	8.26887090e-05	0.00000000e+00
4.605          	2.86483910e-01	2.59416520e-04	6.05914060e-05	1.01639700e-04	0.00000000e+00
4.61           	2.84224980e-01	2.55791720e-04	6.41232350e-05	1.30942670e-04	0.00000000e+00
4.615          	2.30195750e-01	2.52176840e-04	6.76523420e-05	9.56685550e-05	0.00000000e+00
4.62           	9.85968290e-02	2.48571860e-04	7.11705680e-05	9.52172480e-05	0.00000000e+00
4.625          	2.16436300e-01	2.44976780e-04	7.46797250e-05	1.00536700e-04	0.00000000e+00
4.63           	6.58079190e-02	2.41391600e-04	7.81804250e-05	9.69867540e-05	0.00000000e+00
4.635          	2.72509940e-01	2.37816320e-04	8.16728760e-05	7.78341270e-05	0.00000000e+00
4.64           	6.09973110e-02	2.34250920e-04	8.51571530e-05	1.15104430e-04	0.00000000e+00
4.645          	1.66182190e-01	2.30695400e-04	8.86332850e-05	1.18119350e-04	0.00000000e+00
4.65           	1.08120610e-01	2.27149770e-04	9.21012840e-05	1.00434540e-04	0.00000000e+00
4.655          	7.82835320e-02	2.23614000e-04	9.55611590e-05	1.05183270e-04	0.00000000e+00
4.66           	6.20078980e-02	2.20088100e-04	9.90129160e-05	9.76319330e-05	0.00000000e+00
4.665          	1.55135780e-01	2.16572060e-04	1.02456560e-04	1.09766090e-04	0.00000000e+00
4.67           	1.10142140e-01	2.13065880e-04	1.05892090e-04	9.83087700e-05	0.00000000e+00
4.675          	9.03390210e-02	2.09569550e-04	1.09319520e-04	1.02137740e-04	0.00000000e+00
4.68           	2.13911920e-01	2.06083070e-04	1.12738850e-04	9.13216640e-05	0.00000000e+00
4.685          	8.50090660e-02	2.02606420e-04	1.16150090e-04	1.18890860e-04	0.00000000e+00
4.69           	9.46526370e-02	1.99139620e-04	1.19553230e-04	9.68363130e-05	0.00000000e+00
4.695          	9.05136750e-02	1.95682640e-04	1.22948280e-04	1.39805100e-04	0.00000000e+00
4.7            	7.98639270e-02	1.92235490e-04	1.26335240e-04	1.13712010e-04	0.00000000e+00
4.705          	1.38246540e-01	1.88798160e-04	1.29714120e-04	1.02838020e-04	0.00000000e+00
4.71           	5.30588320e-02	1.85370650e-04	1.33084920e-04	8.64126380e-05	0.00000000e+00
4.715          	1.75083000e-01	1.81952950e-04	1.36447640e-04	1.10808980e-04	0.00000000e+00
4.72           	1.78978800e-01	1.78545050e-04	1.39802290e-04	7.02122710e-05	0.00000000e+00
4.725          	1.78794990e-01	1.75146960e-04	1.43148860e-04	9.34456960e-05	0.00000000e+00
4.73           	7.47374060e-02	1.71758660e-04	1.46487370e-04	9.69930690e-05	0.00000000e+00
4.735          	7.70002410e-02	1.68380150e-04	1.49817810e-04	1.09556510e-04	0.00000000e+00
4.74           	5.21408070e-02	1.65011430e-04	1.53140190e-04	8.78741090e-05	0.00000000e+00
4.745          	4.14081010e-01	1.61652490e-04	1.56454500e-04	9.01364020e-05	0.00000000e+00
4.75           	8.34028450e-02	1.58303330e-04	1.59760750e-04	1.15197930e-04	0.00000000e+00
4.755          	1.03618610e-01	1.54963940e-04	1.63058950e-04	9.60183010e-05	0.00000000e+00
4.76           	1.80861920e-01	1.51634310e-04	1.66349080e-04	1.07922720e-04	0.00000000e+00
4.765          	1.45150150e-01	1.48314450e-04	1.69631170e-04	9.01291060e-05	0.00000000e+00
4.77           	8.75268550e-02	1.45004350e-04	1.72905200e-04	9.81106560e-05	0.00000000e+00
4.775          	9.80976560e-02	1.41704000e-04	1.76171180e-04	9.28791910e-05	0.00000000e+00
4.78           	1.59928560e-01	1.38413400e-04	1.79429110e-04	1.29226690e-04	0.00000000e+00
4.785          	1.53220600e-01	1.35132550e-04	1.82678990e-04	9.55434040e-05	0.00000000e+00
4.79           	8.81662410e-02	1.31861430e-04	1.85920820e-04	8.48385820e-05	0.00000000e+00
4.795          	1.25668690e-01	1.28600050e-04	1.89154610e-04	1.02047610e-04	0.00000000e+00
4.8            	1.99890960e-01	1.25348390e-04	1.92380350e-04	9.12200380e-05	0.00000000e+00
4.805          	2.97601490e-01	1.22106470e-04	1.95598050e-04	1.24028630e-04	0.00000000e+00
4.81           	4.58843180e-02	1.18874260e-04	1.98807710e-04	1.07809830e-04	0.00000000e+00
4.815          	2.41184780e-01	1.15651770e-04	2.02009320e-04	1.04044680e-04	0.00000000e+00
4.82           	2.85778240e-01	1.12438990e-04	2.05202900e-04	8.34573450e-05	0.00000000e+00
4.825          	2.88971420e-01	1.09235920e-04	2.08388430e-04	9.35211530e-05	0.00000000e+00
4.83           	9.03168910e-02	1.06042550e-04	2.11565930e-04	7.47226800e-05	0.00000000e+00
4.835          	1.39787800e-01	1.02858870e-04	2.14746310e-04	9.59019420e-05	0.00000000e+00
4.84           	1.20057100e-01	9.96848700e-05	2.17911320e-04	1.15813970e-04	0.00000000e+00
4.845          	3.62368490e-01	9.65205580e-05	2.21065830e-04	1.24245790e-04	0.00000000e+00
4.85           	6.27056770e-02	9.33659320e-05	2.24211470e-04	8.87680790e-05	0.00000000e+00
4.855          	6.55589320e-02	9.02209860e-05	2.27348800e-04	9.51600730e-05	0.00000000e+00
4.86           	1.98058780e-01	8.70857180e-05	2.30477990e-04	1.07592130e-04	0.00000000e+00
4.865          	1.77072460e-01	8.39601220e-05	2.33599100e-04	1.04942750e-04	0.00000000e+00
4.87           	2.51621010e-01	8.08441950e-05	2.36712160e-04	1.01960100e-04	0.00000000e+00
4.875          	8.35243820e-02	7.77379320e-05	2.39817170e-04	1.04064290e-04	0.00000000e+00
4.88           	1.11280740e-01	7.46413290e-05	2.42914140e-04	9.09012420e-05	0.00000000e+00
4.885          	1.15132360e-01	7.15543810e-05	2.46003070e-04	9.85317870e-05	0.00000000e+00
4.89           	8.63809950e-02	6.84770840e-05	2.49083960e-04	8.85841770e-05	0.00000000e+00
4.895          	1.19542360e-01	6.54094340e-05	2.52156800e-04	1.09450560e-04	0.00000000e+00
4.9            	1.38463400e-01	6.23514260e-05	2.55221600e-04	1.19607680e-04	0.00000000e+00
4.905          	4.57212700e-02	5.93030560e-05	2.58278360e-04	1.33081750e-04	0.00000000e+00
4.91           	3.75809640e-02	5.62643200e-05	2.61327080e-04	1.41390910e-04	0.00000000e+00
4.915          	1.91386210e-01	5.32352130e-05	2.64367750e-04	1.21275660e-04	0.00000000e+00
4.92           	1.14854470e-01	5.02157320e-05	2.67400370e-04	1.06193250e-04	0.00000000e+00
4.925          	3.23540530e-01	4.72058720e-05	2.70424950e-04	1.51090610e-04	0.00000000e+00
4.93           	4.85352600e-02	4.42056280e-05	2.73441480e-04	1.15350900e-04	0.00000000e+00
4.935          	1.86391610e-01	4.12149960e-05	2.76449970e-04	1.11795140e-04	0.00000000e+00
4.94           	6.94676220e-02	3.82370000e-05	2.79450400e-04	1.17082240e-04	0.00000000e+00
4.945          	1.07267060e-01	3.53169220e-05	2.82442790e-04	1.11565860e-04	0.00000000e+00
4.95           	4.02463880e-02	3.25027060e-05	2.85427120e-04	1.18414700e-04	0.00000000e+00
4.955          	1.00020630e-01	2.98355040e-05	2.88403400e-04	1.08916580e-04	0.00000000e+00
4.96           	6.65277240e-02	2.73350880e-05	2.91371630e-04	8.67717640e-05	0.00000000e+00
4.965          	7.06619540e-02	2.50256940e-05	2.94331800e-04	9.08466500e-05	0.00000000e+00
4.97           	2.39016590e-01	2.29325680e-05	2.97283910e-04	1.17883670e-04	0.00000000e+00
4.975          	2.70232610e-01	2.10635910e-05	3.00227960e-04	1.21446870e-04	0.00000000e+00
4.98           	1.12465530e-01	1.94342010e-05	3.03163950e-04	1.18857650e-04	0.00000000e+00
4.985          	1.54816680e-01	1.80678800e-05	3.06091880e-04	1.41677000e-04	0.00000000e+00
4.99           	1.47486630e-01	1.69463290e-05	3.09011740e-04	1.33206170e-04	0.00000000e+00
4.995          	1.01278740e-01	1.61247060e-05	3.11923540e-04	1.08487820e-04	0.00000000e+00
5              	2.10954610e-01	1.55556090e-05	3.14827260e-04	1.30265080e-04	0.00000000e+00
5.005          	1.28807250e-01	1.52852430e-05	3.17722910e-04	1.17983120e-04	0.00000000e+00
5.01           	2.32859770e-01	1.52897060e-05	3.20618200e-04	1.46107390e-04	0.00000000e+00
5.015          	8.96551310e-02	1.55850340e-05	3.23500240e-04	1.23660470e-04	0.00000000e+00
5.02           	2.06006870e-01	1.61669100e-05	3.26372470e-04	1.30627570e-04	0.00000000e+00
5.025          	1.48417080e-01	1.70305260e-05	3.29236040e-04	1.47919840e-04	0.00000000e+00
5.03           	1.55758810e-01	1.81785350e-05	3.32091320e-04	1.41706010e-04	0.00000000e+00
5.035          	9.77863760e-02	1.95948170e-05	3.34938450e-04	1.58215250e-04	0.00000000e+00
5.04           	1.32219190e-01	2.12814660e-05	3.37633020e-04	1.48189690e-04	0.00000000e+00
5.045          	1.30321590e-01	2.32056460e-05	3.40416530e-04	1.55574400e-04	0.00000000e+00
5.05           	6.98270690e-02	2.53878960e-05	3.43224400e-04	1.93161930e-04	0.00000000e+00
5.055          	9.20363530e-02	2.78373260e-05	3.46035070e-04	1.47418220e-04	0.00000000e+00
5.06           	1.29053650e-01	3.04378610e-05	3.48841330e-04	1.42917960e-04	0.00000000e+00
5.065          	1.29881410e-01	3.31798060e-05	3.51640740e-04	1.49587120e-04	0.00000000e+00
5.07           	1.43601300e-01	3.59122620e-05	3.54432510e-04	1.63764410e-04	0.00000000e+00
5.075          	8.93885330e-02	3.86352320e-05	3.57216340e-04	1.72954290e-04	0.00000000e+00
5.08           	1.47177560e-01	4.13743600e-05	3.59992130e-04	1.66927200e-04	0.00000000e+00
5.085          	2.29824910e-01	4.40867780e-05	3.62759840e-04	1.69064450e-04	0.00000000e+00
5.09           	9.33065590e-02	4.67839790e-05	3.65519450e-04	1.65018800e-04	0.00000000e+00
5.095          	2.43924360e-01	4.94697970e-05	3.68270960e-04	1.81062740e-04	0.00000000e+00
5.1            	4.03274100e-02	5.21455130e-05	3.71014360e-04	1.74731770e-04	0.00000000e+00
5.105          	1.78703540e-01	5.48115560e-05	3.73749630e-04	1.63744280e-04	0.00000000e+00
5.11           	1.73102440e-01	5.74680730e-05	3.76476770e-04	2.30578990e-04	0.00000000e+00
5.115          	1.25400310e-01	6.01151150e-05	3.79195770e-04	1.79224920e-04	0.00000000e+00
5.12           	2.84314390e-01	6.27527020e-05	3.81906640e-04	2.24213650e-04	0.00000000e+00
5.125          	2.56544520e-01	6.53808430e-05	3.84609360e-04	2.37558370e-04	0.00000000e+00
5.13           	1.56920510e-01	6.79995440e-05	3.87303920e-04	2.40033540e-04	0.00000000e+00
5.135          	1.00653290e-01	7.06088090e-05	3.89990330e-04	1.75904030e-04	0.00000000e+00
5.14           	1.31330670e-01	7.32086430e-05	3.92668580e-04	2.29338820e-04	0.00000000e+00
5.145          	2.01157770e-01	7.57990500e-05	3.95338660e-04	2.21327730e-04	0.00000000e+00
5.15           	1.49497090e-01	7.83800330e-05	3.98000560e-04	1.93651710e-04	0.00000000e+00
5.155          	1.85690500e-01	8.09515970e-05	4.00654290e-04	2.03049090e-04	0.00000000e+00
5.16           	1.53802130e-01	8.35137460e-05	4.03299830e-04	1.72662660e-04	0.00000000e+00
5.165          	2.48570890e-01	8.60664840e-05	4.05937190e-04	1.98215040e-04	0.00000000e+00
5.17           	1.59951210e-01	8.86098150e-05	4.08566350e-04	2.10095050e-04	0.00000000e+00
5.175          	2.55201960e-01	9.11437430e-05	4.11187320e-04	2.00702620e-04	0.00000000e+00
5.18           	1.49011960e-01	9.36682720e-05	4.13800080e-04	1.86003160e-04	0.00000000e+00
5.185          	3.46075010e-01	9.61834060e-05	4.16404640e-04	2.33521240e-04	0.00000000e+00
5.19           	2.02922220e-01	9.86891490e-05	4.19000980e-04	1.88164720e-04	0.00000000e+00
5.195          	1.24040270e-01	1.01185510e-04	4.21589100e-04	1.95822410e-04	0.00000000e+00
5.2            	7.98617740e-02	1.03672480e-04	4.24169000e-04	2.18736770e-04	0.00000000e+00
5.205          	1.42421640e-01	1.06150080e-04	4.26740670e-04	2.45053950e-04	0.00000000e+00
5.21           	8.27868090e-02	1.08618300e-04	4.29304100e-04	2.25938640e-04	0.00000000e+00
5.215          	8.34513380e-02	1.11077150e-04	4.31859300e-04	1.95570950e-04	0.00000000e+00
5.22           	8.27376830e-02	1.13526630e-04	4.34406250e-04	1.99948110e-04	0.00000000e+00
5.225          	3.42473630e-01	1.15983570e-04	4.36944960e-04	2.13215180e-04	0.00000000e+00
5.23           	9.63865210e-02	1.18419850e-04	4.39475410e-04	1.82398880e-04	0.00000000e+00
5.235          	1.62876590e-01	1.20843030e-04	4.41997600e-04	1.93753360e-04	0.00000000e+00
5.24           	1.01931210e-01	1.23255590e-04	4.44511520e-04	1.73176650e-04	0.00000000e+00
5.245          	5.57422370e-02	1.25658400e-04	4.47017170e-04	1.48234400e-04	0.00000000e+00
5.25           	1.26426230e-01	1.28051730e-04	4.49514550e-04	1.51909100e-04	0.00000000e+00
5.255          	1.19389470e-01	1.30435670e-04	4.52003640e-04	1.67131440e-04	0.00000000e+00
5.26           	1.09600690e-01	1.32810270e-04	4.54484450e-04	1.55281690e-04	0.00000000e+00
5.265          	8.14327310e-02	1.35175530e-04	4.56956970e-04	2.08273270e-04	0.00000000e+00
5.27           	7.95243490e-02	1.37531480e-04	4.59421190e-04	1.60608280e-04	0.00000000e+00
5.275          	6.82911860e-02	1.39878100e-04	4.61877100e-04	1.77033490e-04	0.00000000e+00
5.28           	1.09519210e-01	1.42215410e-04	4.64324700e-04	1.73911620e-04	0.00000000e+00
5.285          	1.39527190e-01	1.44543410e-04	4.66763990e-04	1.48361170e-04	0.00000000e+00
5.29           	9.29468880e-02	1.46862100e-04	4.69194960e-04	1.65622590e-04	0.00000000e+00
5.295          	1.11064320e-01	1.49171500e-04	4.71617600e-04	1.43798700e-04	0.00000000e+00
5.3            	2.83252490e-01	1.51471590e-04	4.74031910e-04	1.64005260e-04	0.00000000e+00
5.305          	2.91848600e-01	1.53774110e-04	4.76437880e-04	1.85611110e-04	0.00000000e+00
5.31           	1.61027370e-01	1.56059480e-04	4.78835510e-04	1.70307890e-04	0.00000000e+00
5.315          	7.35772120e-02	1.58332980e-04	4.81260620e-04	2.02923450e-04	0.00000000e+00
5.32           	6.28555280e-02	1.60596340e-04	4.83653280e-04	2.31311090e-04	0.00000000e+00
5.325          	2.15640260e-01	1.62850130e-04	4.86029520e-04	2.26302800e-04	0.00000000e+00
5.33           	7.51535510e-02	1.65094570e-04	4.88394700e-04	2.03314340e-04	0.00000000e+00
5.335          	7.68422970e-02	1.67329700e-04	4.90750600e-04	2.28809680e-04	0.00000000e+00
5.34           	6.08751920e-02	1.69555560e-04	4.93097800e-04	2.15016450e-04	0.00000000e+00
5.345          	1.43889720e-01	1.71772160e-04	4.95436510e-04	1.94669230e-04	0.00000000e+00
5.35           	7.87976580e-02	1.73979510e-04	4.97766790e-04	2.03018360e-04	0.00000000e+00
5.355          	2.22428270e-01	1.76177600e-04	5.00088650e-04	1.97417950e-04	0.00000000e+00
5.36           	7.65393720e-02	1.78374890e-04	5.02402100e-04	1.94881940e-04	0.00000000e+00
5.365          	7.13339030e-02	1.80557280e-04	5.04707130e-04	2.03803330e-04	0.00000000e+00
5.37           	1.37005350e-01	1.82728550e-04	5.07003750e-04	1.80848590e-04	0.00000000e+00
5.375          	3.78169410e-02	1.84889970e-04	5.09291930e-04	2.30356070e-04	0.00000000e+00
5.38           	1.57320580e-01	1.87041940e-04	5.11571690e-04	2.02693400e-04	0.00000000e+00
5.385          	7.68099370e-02	1.89184630e-04	5.13843010e-04	1.96536960e-04	0.00000000e+00
5.39           	9.46711300e-02	1.91318080e-04	5.16105880e-04	2.00167960e-04	0.00000000e+00
5.395          	1.10675410e-01	1.93442320e-04	5.18360310e-04	2.23053900e-04	0.00000000e+00
5.4            	7.21555560e-02	1.95563580e-04	5.20606270e-04	2.04982290e-04	0.00000000e+00
5.405          	8.74531360e-02	1.97671460e-04	5.22843780e-04	2.10090240e-04	0.00000000e+00
5.41           	2.03933040e-01	1.99768750e-04	5.25072820e-04	2.28426040e-04	0.00000000e+00
5.415          	2.19823970e-01	2.01856390e-04	5.27293380e-04	2.33157740e-04	0.00000000e+00
5.42           	1.51456370e-01	2.03934680e-04	5.29505450e-04	2.21788120e-04	0.00000000e+00
5.425          	8.22445330e-02	2.06008480e-04	5.31709040e-04	2.33276820e-04	0.00000000e+00
5.43           	9.59115110e-02	2.08069910e-04	5.33904140e-04	2.29988200e-04	0.00000000e+00
5.435          	1.19789650e-01	2.10121110e-04	5.36090730e-04	2.29728390e-04	0.00000000e+00
5.44           	1.60263670e-01	2.12162790e-04	5.38268810e-04	2.36428050e-04	0.00000000e+00
5.445          	7.85563650e-02	2.14198850e-04	5.40438380e-04	2.19411600e-04	0.00000000e+00
5.45           	1.48784140e-01	2.16223270e-04	5.42599420e-04	2.38165440e-04	0.00000000e+00
5.455          	2.52010950e-01	2.18237700e-04	5.44751940e-04	2.37556600e-04	0.00000000e+00
5.46           	1.23171940e-01	2.20245610e-04	5.46920490e-04	2.27396120e-04	0.00000000e+00
5.465          	9.01275470e-02	2.22242370e-04	5.49063970e-04	2.42967480e-04	0.00000000e+00
5.47           	8.76599730e-02	2.24229320e-04	5.51193370e-04	2.27975230e-04	0.00000000e+00
5.475          	1.46692460e-01	2.26209200e-04	5.53312360e-04	2.46602060e-04	0.00000000e+00
5.48           	8.14826670e-02	2.28178360e-04	5.55422160e-04	2.32627790e-04	0.00000000e+00
5.485          	3.15607180e-01	2.30139700e-04	5.57523160e-04	2.40884510e-04	0.00000000e+00
5.49           	6.07758820e-02	2.31762380e-04	5.59615520e-04	2.64307670e-04	0.00000000e+00
5.495          	1.24286830e-01	2.33595970e-04	5.61699260e-04	2.75113850e-04	0.00000000e+00
5.5            	1.81804640e-01	2.35493820e-04	5.63774390e-04	2.49791940e-04	0.00000000e+00
5.505          	1.72161650e-01	2.37407040e-04	5.65840920e-04	2.62091940e-04	0.00000000e+00
5.51           	5.24699410e-02	2.39319300e-04	5.67898830e-04	2.60859080e-04	0.00000000e+00
5.515          	8.50338810e-02	2.41225190e-04	5.69948130e-04	2.55893490e-04	0.00000000e+00
5.52           	8.72889500e-02	2.43122920e-04	5.71988800e-04	2.51818180e-04	0.00000000e+00
5.525          	6.71013150e-02	2.45011860e-04	5.74020840e-04	2.45351700e-04	0.00000000e+00
5.53           	9.68064640e-02	2.46891810e-04	5.76044240e-04	2.67343350e-04	0.00000000e+00
5.535          	1.81198550e-01	2.48762710e-04	5.78059000e-04	3.03231580e-04	0.00000000e+00
5.54           	1.08756370e-01	2.50624530e-04	5.80065100e-04	2.64564170e-04	0.00000000e+00
5.545          	1.68595800e-01	2.52477330e-04	5.82079960e-04	2.51364130e-04	0.00000000e+00
5.55           	1.92004150e-01	2.54321050e-04	5.84074430e-04	2.64366110e-04	0.00000000e+00
5.555          	2.52198950e-01	2.56155730e-04	5.86056320e-04	2.67232430e-04	0.00000000e+00
5.56           	5.32212430e-02	2.57981380e-04	5.88028200e-04	2.62504170e-04	0.00000000e+00
5.565          	7.50381690e-02	2.59797970e-04	5.89990950e-04	2.69956640e-04	0.00000000e+00
5.57           	9.42210130e-02	2.61605510e-04	5.91944850e-04	2.71554700e-04	0.00000000e+00
5.575          	2.01257120e-01	2.63404040e-04	5.93889980e-04	2.91194480e-04	0.00000000e+00
5.58           	7.88714580e-02	2.65193510e-04	5.95826390e-04	2.83298020e-04	0.00000000e+00
5.585          	9.28162090e-02	2.66973980e-04	5.97754070e-04	2.72022870e-04	0.00000000e+00
5.59           	7.59522530e-02	2.68745430e-04	5.99673010e-04	2.66083650e-04	0.00000000e+00
5.595          	7.60787150e-02	2.70507880e-04	6.01583220e-04	2.93789600e-04	0.00000000e+00
5.6            	1.76979710e-01	2.72261320e-04	6.03484680e-04	2.87940410e-04	0.00000000e+00
5.605          	7.23819700e-02	2.74005770e-04	6.05377390e-04	2.78790930e-04	0.00000000e+00
5.61           	7.74316300e-02	2.75741250e-04	6.07273820e-04	2.75145110e-04	0.00000000e+00
5.615          	1.79724230e-01	2.77467740e-04	6.09153080e-04	2.72654030e-04	0.00000000e+00
5.62           	6.30161830e-02	2.79185250e-04	6.11020770e-04	2.94738350e-04	0.00000000e+00
5.625          	5.51848700e-02	2.80893790e-04	6.12878730e-04	2.90704080e-04	0.00000000e+00
5.63           	1.80723760e-01	2.82593340e-04	6.14727580e-04	3.01873360e-04	0.00000000e+00
5.635          	8.62637730e-02	2.84283960e-04	6.16567520e-04	2.83598800e-04	0.00000000e+00
5.64           	9.88899300e-02	2.85965610e-04	6.18398610e-04	2.79687630e-04	0.00000000e+00
5.645          	1.62017210e-01	2.87638310e-04	6.20220880e-04	2.80486480e-04	0.00000000e+00
5.65           	8.73427920e-02	2.89302100e-04	6.22034320e-04	2.81171010e-04	0.00000000e+00
5.655          	2.35995000e-01	2.90956920e-04	6.23838930e-04	2.65692730e-04	0.00000000e+00
5.66           	8.53225950e-02	2.92602830e-04	6.25643730e-04	2.84002580e-04	0.00000000e+00
5.665          	6.85701400e-02	2.94239850e-04	6.27433620e-04	2.47549550e-04	0.00000000e+00
5.67           	8.43534660e-02	2.95867920e-04	6.29212610e-04	2.58653630e-04	0.00000000e+00
5.675          	1.21408140e-01	2.97487110e-04	6.30982070e-04	2.54964440e-04	0.00000000e+00
5.68           	7.71975830e-02	2.99097390e-04	6.32742420e-04	2.65749920e-04	0.00000000e+00
5.685          	5.48357630e-02	3.00698750e-04	6.34493810e-04	2.70033730e-04	0.00000000e+00
5.69           	1.48372630e-01	3.02291240e-04	6.36236300e-04	2.73871590e-04	0.00000000e+00
5.695          	1.71002140e-01	3.03874850e-04	6.37969880e-04	2.69769050e-04	0.00000000e+00
5.7            	1.77440080e-01	3.05449590e-04	6.39701130e-04	2.85148090e-04	0.00000000e+00
5.705          	2.27040260e-01	3.07015480e-04	6.41419060e-04	2.71517500e-04	0.00000000e+00
5.71           	6.79889600e-02	3.08572490e-04	6.43126580e-04	2.74089510e-04	0.00000000e+00
5.715          	1.65390750e-01	3.10120650e-04	6.44824680e-04	2.72368990e-04	0.00000000e+00
5.72           	9.65631920e-02	3.11659990e-04	6.46513680e-04	2.86533460e-04	0.00000000e+00
5.725          	1.97173420e-01	3.13190480e-04	6.48198540e-04	2.83370670e-04	0.00000000e+00
5.73           	7.46821130e-02	3.14712110e-04	6.49871170e-04	2.97977830e-04	0.00000000e+00
5.735          	7.25274870e-02	3.16224950e-04	6.51533740e-04	2.63494760e-04	0.00000000e+00
5.74           	7.33716600e-02	3.17728950e-04	6.53186980e-04	2.64720950e-04	0.00000000e+00
5.745          	5.99910830e-02	3.19224150e-04	6.54834720e-04	2.72623630e-04	0.00000000e+00
5.75           	1.38827390e-01	3.20710540e-04	6.56471020e-04	2.68584920e-04	0.00000000e+00
5.755          	9.13761820e-02	3.22188170e-04	6.58100210e-04	2.98155060e-04	0.00000000e+00
5.76           	6.96038800e-02	3.23657000e-04	6.59718310e-04	2.72071490e-04	0.00000000e+00
5.765          	7.88417960e-02	3.25117020e-04	6.61328740e-04	2.94509910e-04	0.00000000e+00
5.77           	1.88703900e-01	3.26568140e-04	6.62614600e-04	2.57855360e-04	0.00000000e+00
5.775          	9.32148520e-02	3.28010390e-04	6.64102130e-04	2.91743160e-04	0.00000000e+00
5.78           	1.07776970e-01	3.29443820e-04	6.65650970e-04	2.64271500e-04	0.00000000e+00
5.785          	7.67495810e-02	3.30868510e-04	6.67214340e-04	2.73599940e-04	0.00000000e+00
5.79           	1.17115590e-01	3.32284480e-04	6.68776600e-04	2.98871880e-04	0.00000000e+00
5.795          	1.08983680e-01	3.33691720e-04	6.70332450e-04	2.96738530e-04	0.00000000e+00
5.8            	1.79402410e-01	3.35090240e-04	6.71880140e-04	2.57615180e-04	0.00000000e+00
5.805          	8.09352340e-02	3.36480040e-04	6.73419050e-04	2.84193600e-04	0.00000000e+00
5.81           	1.74719610e-01	3.37861160e-04	6.74949020e-04	2.92897160e-04	0.00000000e+00
5.815          	6.03551610e-02	3.39233600e-04	6.76469980e-04	2.68073680e-04	0.00000000e+00
5.82           	5.23474050e-02	3.40597370e-04	6.77981900e-04	2.90748150e-04	0.00000000e+00
5.825          	5.08398450e-02	3.41952450e-04	6.79484690e-04	3.00604270e-04	0.00000000e+00
5.83           	1.01462310e-01	3.43298890e-04	6.80978430e-04	2.67692870e-04	0.00000000e+00
5.835          	2.44965040e-01	3.44636650e-04	6.82463010e-04	2.93453170e-04	0.00000000e+00
5.84           	8.33975210e-02	3.45965770e-04	6.83938490e-04	2.57174750e-04	0.00000000e+00
5.845          	1.57385140e-01	3.47286270e-04	6.85404890e-04	2.68142880e-04	0.00000000e+00
5.85           	5.42925370e-02	3.48598130e-04	6.86862130e-04	2.86891040e-04	0.00000000e+00
5.855          	2.03472100e-01	3.49901360e-04	6.88310220e-04	2.70862920e-04	0.00000000e+00
5.86           	2.06491090e-01	3.51195960e-04	6.89749120e-04	2.89595590e-04	0.00000000e+00
5.865          	1.24501850e-01	3.52481970e-04	6.91178890e-04	2.68541150e-04	0.00000000e+00
5.87           	6.70594930e-02	3.53759380e-04	6.92599490e-04	2.70457360e-04	0.00000000e+00
5.875          	7.23459100e-02	3.55028200e-04	6.94010920e-04	2.86245460e-04	0.00000000e+00
5.88           	2.17464490e-01	3.56288470e-04	6.95413200e-04	2.98555410e-04	0.00000000e+00
5.885          	9.86444220e-02	3.57540130e-04	6.96806230e-04	3.06991830e-04	0.00000000e+00
5.89           	5.46482530e-02	3.58783230e-04	6.98190070e-04	3.03655790e-04	0.00000000e+00
5.895          	5.16817690e-02	3.60017780e-04	6.99564710e-04	2.83164090e-04	0.00000000e+00
5.9            	6.98600020e-02	3.61243810e-04	7.00930170e-04	2.96519450e-04	0.00000000e+00
5.905          	9.92203670e-02	3.62461260e-04	7.02286350e-04	2.97709740e-04	0.00000000e+00
5.91           	7.18043080e-02	3.63670200e-04	7.03633300e-04	2.86552960e-04	0.00000000e+00
5.915          	1.17519670e-01	3.64870640e-04	7.04971060e-04	2.94861620e-04	0.00000000e+00
5.92           	6.62811170e-02	3.66062550e-04	7.06299550e-04	2.95568150e-04	0.00000000e+00
5.925          	6.04329180e-02	3.67245940e-04	7.07618730e-04	2.99426320e-04	0.00000000e+00
5.93           	6.47225120e-02	3.68420850e-04	7.08928670e-04	3.19669250e-04	0.00000000e+00
5.935          	5.13552090e-02	3.69587290e-04	7.10229390e-04	2.93770740e-04	0.00000000e+00
5.94           	6.54882240e-02	3.70745250e-04	7.11520800e-04	2.83846620e-04	0.00000000e+00
5.945          	3.51959520e-02	3.71894740e-04	7.12802910e-04	2.86841970e-04	0.00000000e+00
5.95           	7.23999170e-02	3.73035750e-04	7.14075690e-04	2.74779910e-04	0.00000000e+00
5.955          	7.55000110e-02	3.74168340e-04	7.15339230e-04	3.08931350e-04	0.00000000e+00
5.96           	5.46092260e-02	3.75292490e-04	7.16593440e-04	2.98642850e-04	0.00000000e+00
5.965          	9.23817720e-02	3.76408190e-04	7.17838300e-04	3.06478360e-04	0.00000000e+00
5.97           	5.53408180e-02	3.77515480e-04	7.19073840e-04	2.86699290e-04	0.00000000e+00
5.975          	4.29416070e-02	3.78614380e-04	7.20300100e-04	2.73852960e-04	0.00000000e+00
5.98           	1.28563830e-01	3.79704850e-04	7.21516960e-04	2.75063460e-04	0.00000000e+00
5.985          	3.54497250e-02	3.80786950e-04	7.22724520e-04	2.84651170e-04	0.00000000e+00
5.99           	3.39816150e-02	3.81860640e-04	7.23922680e-04	2.69776650e-04	0.00000000e+00
5.995          	1.66381040e-01	3.82925980e-04	7.25111490e-04	2.78471890e-04	0.00000000e+00
6              	8.48363720e-02	3.83982970e-04	7.26290970e-04	2.73235240e-04	0.00000000e+00
6.005          	1.68545360e-01	3.85031590e-04	7.27461050e-04	2.84135400e-04	0.00000000e+00
6.01           	9.11735140e-02	3.86071850e-04	7.28621700e-04	2.82387550e-04	0.00000000e+00
6.015          	3.85200230e-02	3.87103810e-04	7.29773020e-04	2.92020850e-04	0.00000000e+00
6.02           	7.11825600e-02	3.88127440e-04	7.30914920e-04	2.81282370e-04	0.00000000e+00
6.025          	7.08295870e-02	3.89142730e-04	7.32047380e-04	2.87930070e-04	0.00000000e+00
6.03           	8.84037730e-02	3.90149740e-04	7.33170480e-04	2.87629140e-04	0.00000000e+00
6.035          	1.04092470e-01	3.91148440e-04	7.34284110e-04	2.69413530e-04	0.00000000e+00
6.04           	7.58422340e-02	3.92138870e-04	7.35388320e-04	2.73099670e-04	0.00000000e+00
6.045          	4.81823880e-02	3.93121020e-04	7.36483110e-04	2.64812790e-04	0.00000000e+00
6.05           	1.25463640e-01	3.94094910e-04	7.37568460e-04	2.69858230e-04	0.00000000e+00
6.055          	6.94817840e-02	3.95060570e-04	7.38644390e-04	2.51505600e-04	0.00000000e+00
6.06           	8.00409560e-02	3.96017970e-04	7.39710850e-04	2.67268560e-04	0.00000000e+00
6.065          	1.87731480e-01	3.96967140e-04	7.40767840e-04	2.57325100e-04	0.00000000e+00
6.07           	4.88531210e-02	3.97908070e-04	7.41815320e-04	2.57387530e-04	0.00000000e+00
6.075          	1.54386020e-01	3.98840800e-04	7.42853350e-04	2.67481540e-04	0.00000000e+00
6.08           	6.92218790e-02	3.99765350e-04	7.43881930e-04	2.75078540e-04	0.00000000e+00
6.085          	6.50857810e-02	4.00681680e-04	7.44900970e-04	2.80398720e-04	0.00000000e+00
6.09           	5.92443340e-02	4.01589840e-04	7.45910530e-04	2.71443370e-04	0.00000000e+00
6.095          	1.35546820e-01	4.02489840e-04	7.46910600e-04	2.74485430e-04	0.00000000e+00
6.1            	1.17338990e-01	4.03381680e-04	7.47901160e-04	2.89885690e-04	0.00000000e+00
6.105          	5.72591200e-02	4.04265370e-04	7.48882200e-04	2.92633630e-04	0.00000000e+00
6.11           	6.21117080e-02	4.05140950e-04	7.49853750e-04	2.87284950e-04	0.00000000e+00
6.115          	6.49988150e-02	4.06008370e-04	7.50815720e-04	2.88617250e-04	0.00000000e+00
6.12           	9.40748300e-02	4.06867700e-04	7.51768190e-04	3.08167500e-04	0.00000000e+00
6.125          	7.31757700e-02	4.07718920e-04	7.52711120e-04	2.88634050e-04	0.00000000e+00
6.13           	5.41013620e-02	4.08562030e-04	7.53644450e-04	2.75381880e-04	0.00000000e+00
6.135          	5.61992430e-02	4.09397070e-04	7.54568250e-04	2.75063580e-04	0.00000000e+00
6.14           	6.24864980e-02	4.10224040e-04	7.55482500e-04	2.78993390e-04	0.00000000e+00
6.145          	1.71868450e-01	4.11042980e-04	7.56387220e-04	2.88757810e-04	0.00000000e+00
6.15           	1.06734110e-01	4.11853840e-04	7.57282300e-04	2.90351680e-04	0.00000000e+00
6.155          	8.85312450e-02	4.12656690e-04	7.58167860e-04	2.84300980e-04	0.00000000e+00
6.16           	6.29311520e-02	4.13451500e-04	7.59043820e-04	2.80326150e-04	0.00000000e+00
6.165          	4.69695970e-02	4.14238310e-04	7.59910180e-04	2.89497960e-04	0.00000000e+00
6.17           	4.51954150e-02	4.15017090e-04	7.60766910e-04	2.91510970e-04	0.00000000e+00
6.175          	5.98707580e-02	4.15787890e-04	7.61614060e-04	2.90097790e-04	0.00000000e+00
6.18           	6.04241260e-02	4.16550740e-04	7.62451630e-04	3.05205730e-04	0.00000000e+00
6.185          	6.29640580e-02	4.17305610e-04	7.63279580e-04	2.89964610e-04	0.00000000e+00
6.19           	4.93452200e-02	4.18052530e-04	7.64097900e-04	2.90231750e-04	0.00000000e+00
6.195          	6.66324070e-02	4.18791500e-04	7.64906590e-04	3.03409640e-04	0.00000000e+00
6.2            	7.42923680e-02	4.19522520e-04	7.65705620e-04	2.95592850e-04	0.00000000e+00
6.205          	4.53183890e-02	4.20245640e-04	7.66495030e-04	3.04232610e-04	0.00000000e+00
6.21           	8.40844620e-02	4.20960850e-04	7.67274810e-04	2.92718940e-04	0.00000000e+00
6.215          	7.46640180e-02	4.21668180e-04	7.68044940e-04	2.98605250e-04	0.00000000e+00
6.22           	5.55431600e-02	4.22367610e-04	7.68805420e-04	3.01840560e-04	0.00000000e+00
6.225          	5.17210300e-02	4.23059180e-04	7.69556250e-04	2.94516940e-04	0.00000000e+00
6.23           	5.37689160e-02	4.23742910e-04	7.70297440e-04	3.11724610e-04	0.00000000e+00
6.235          	7.48910930e-02	4.24418770e-04	7.71028910e-04	2.95597210e-04	0.00000000e+00
6.24           	3.89934960e-02	4.25086810e-04	7.71750750e-04	3.15414960e-04	0.00000000e+00
6.245          	1.08456680e-01	4.25747030e-04	7.72462900e-04	3.00740230e-04	0.00000000e+00
6.25           	8.52934070e-02	4.26399420e-04	7.73165330e-04	3.09192440e-04	0.00000000e+00
6.255          	5.83686780e-02	4.27044020e-04	7.73858090e-04	3.04422580e-04	0.00000000e+00
6.26           	5.02449680e-02	4.27680860e-04	7.74541190e-04	2.93733440e-04	0.00000000e+00
6.265          	8.20124760e-02	4.28309920e-04	7.75214580e-04	3.13769490e-04	0.00000000e+00
6.27           	1.78756020e-01	4.28931200e-04	7.75878230e-04	3.16493840e-04	0.00000000e+00
6.275          	7.07265450e-02	4.29544750e-04	7.76532180e-04	3.18454170e-04	0.00000000e+00
6.28           	6.67587000e-02	4.30150580e-04	7.77176470e-04	3.09708220e-04	0.00000000e+00
6.285          	6.58900350e-02	4.30748670e-04	7.77810990e-04	3.15218690e-04	0.00000000e+00
6.29           	5.35481020e-02	4.31339070e-04	7.78435830e-04	3.19823140e-04	0.00000000e+00
6.295          	5.69862460e-02	4.31921770e-04	7.79050930e-04	3.18042040e-04	0.00000000e+00
6.3            	4.50468920e-02	4.32496770e-04	7.79656270e-04	3.14229620e-04	0.00000000e+00
6.305          	6.72726620e-02	4.33064110e-04	7.80251890e-04	3.16333120e-04	0.00000000e+00
6.31           	7.06009280e-02	4.33623800e-04	7.80837780e-04	2.92460360e-04	0.00000000e+00
6.315          	6.28271500e-02	4.34175850e-04	7.81413940e-04	3.04081290e-04	0.00000000e+00
6.32           	5.80006110e-02	4.34720290e-04	7.81980370e-04	3.11892920e-04	0.00000000e+00
6.325          	1.11271830e-01	4.35257090e-04	7.82537010e-04	3.12191350e-04	0.00000000e+00
6.33           	5.33653480e-02	4.35786310e-04	7.83083940e-04	3.06948420e-04	0.00000000e+00
6.335          	6.33202800e-02	4.36307910e-04	7.83621060e-04	2.98624700e-04	0.00000000e+00
6.34           	4.16060630e-02	4.36821950e-04	7.84148440e-04	3.12252240e-04	0.00000000e+00
6.345          	5.23394590e-02	4.37328440e-04	7.84666090e-04	2.95223100e-04	0.00000000e+00
6.35           	8.03890600e-02	4.37827370e-04	7.85173950e-04	2.96299340e-04	0.00000000e+00
6.355          	8.62205560e-02	4.38318750e-04	7.85672010e-04	3.12672450e-04	0.00000000e+00
6.36           	5.14965680e-02	4.38802640e-04	7.86160340e-04	2.97369310e-04	0.00000000e+00
6.365          	5.83709810e-02	4.39278990e-04	7.86638850e-04	3.02608150e-04	0.00000000e+00
6.37           	3.76513170e-02	4.39747880e-04	7.87107620e-04	2.96616620e-04	0.00000000e+00
6.375          	6.84473100e-02	4.40209270e-04	7.87566590e-04	2.98045370e-04	0.00000000e+00
6.38           	5.27707440e-02	4.40663190e-04	7.88015740e-04	3.06169280e-04	0.00000000e+00
6.385          	4.05827270e-02	4.41109670e-04	7.88455150e-04	3.04034370e-04	0.00000000e+00
6.39           	6.74838230e-02	4.41548690e-04	7.88884720e-04	2.92629410e-04	0.00000000e+00
6.395          	4.98349790e-02	4.41980300e-04	7.89304510e-04	3.10230420e-04	0.00000000e+00
6.4            	1.81796710e-01	4.42404500e-04	7.89714510e-04	3.18523480e-04	0.00000000e+00
6.405          	5.54591390e-02	4.42821320e-04	7.90114730e-04	3.01595620e-04	0.00000000e+00
6.41           	9.43510910e-02	4.43230730e-04	7.90505110e-04	3.16112190e-04	0.00000000e+00
6.415          	3.77666550e-02	4.43632800e-04	7.90885720e-04	3.00227270e-04	0.00000000e+00
6.42           	1.78966000e-01	4.44027500e-04	7.91256510e-04	3.17142760e-04	0.00000000e+00
6.425          	5.02976730e-02	4.44414860e-04	7.91617480e-04	3.03113490e-04	0.00000000e+00
6.43           	7.11532190e-02	4.44794900e-04	7.91968640e-04	3.15200600e-04	0.00000000e+00
6.435          	5.65333320e-02	4.45167620e-04	7.92309990e-04	2.99863850e-04	0.00000000e+00
6.44           	8.38184600e-02	4.45533040e-04	7.92641490e-04	3.10991180e-04	0.00000000e+00
6.445          	6.22388400e-02	4.45891190e-04	7.92963210e-04	3.12739030e-04	0.00000000e+00
6.45           	5.83943700e-02	4.46242070e-04	7.93275110e-04	3.16888060e-04	0.00000000e+00
6.455          	1.62695630e-01	4.46585700e-04	7.93577170e-04	3.04195710e-04	0.00000000e+00
6.46           	4.58782080e-02	4.46922070e-04	7.93869390e-04	3.02833290e-04	0.00000000e+00
6.465          	7.67720630e-02	4.47251250e-04	7.94151820e-04	2.91998040e-04	0.00000000e+00
6.47           	8.81450120e-02	4.47573190e-04	7.94424390e-04	2.95932550e-04	0.00000000e+00
6.475          	4.56958200e-02	4.47887950e-04	7.94687150e-04	3.14955350e-04	0.00000000e+00
6.48           	1.19803960e-01	4.48195530e-04	7.94940080e-04	3.24951320e-04	0.00000000e+00
6.485          	1.12631070e-01	4.48495960e-04	7.95183210e-04	3.06059460e-04	0.00000000e+00
6.49           	1.07589950e-01	4.48789240e-04	7.95416490e-04	3.19267140e-04	0.00000000e+00
6.495          	1.18818320e-01	4.49075360e-04	7.95639910e-04	3.04492760e-04	0.00000000e+00
6.5            	5.84604160e-02	4.49354390e-04	7.95853540e-04	3.13283360e-04	0.00000000e+00
6.505          	7.89878530e-02	4.49626300e-04	7.96057320e-04	3.05065080e-04	0.00000000e+00
6.51           	6.94265970e-02	4.49891120e-04	7.96251260e-04	3.10290620e-04	0.00000000e+00
6.515          	6.82552060e-02	4.50148870e-04	7.96435370e-04	3.20172420e-04	0.00000000e+00
6.52           	1.20708290e-01	4.50399560e-04	7.96609640e-04	3.12310420e-04	0.00000000e+00
6.525          	1.73707310e-01	4.50643190e-04	7.96774050e-04	3.06790290e-04	0.00000000e+00
6.53           	1.41316120e-01	4.50879820e-04	7.96928670e-04	3.06654010e-04	0.00000000e+00
6.535          	4.91319150e-02	4.51109430e-04	7.97073440e-04	3.04114510e-04	0.00000000e+00
6.54           	4.50645950e-02	4.51332040e-04	7.97208380e-04	3.07382400e-04	0.00000000e+00
6.545          	6.96411020e-02	4.51547650e-04	7.97333450e-04	3.04451950e-04	0.00000000e+00
6.55           	6.39914680e-02	4.51756320e-04	7.97448720e-04	3.06475750e-04	0.00000000e+00
6.555          	4.36182260e-02	4.51958030e-04	7.97554160e-04	3.02034270e-04	0.00000000e+00
6.56           	5.73310080e-02	4.52152810e-04	7.97649750e-04	2.98259060e-04	0.00000000e+00
6.565          	6.53855880e-02	4.52340660e-04	7.97735510e-04	3.05835270e-04	0.00000000e+00
6.57           	6.14744440e-02	4.52521610e-04	7.97811440e-04	2.92490040e-04	0.00000000e+00
6.575          	2.02546270e-01	4.52695660e-04	7.97877510e-04	2.98894050e-04	0.00000000e+00
6.58           	9.40268560e-02	4.52862840e-04	7.97933760e-04	2.86816290e-04	0.00000000e+00
6.585          	1.79803450e-01	4.53023190e-04	7.97980220e-04	2.97208820e-04	0.00000000e+00
6.59           	6.46110590e-02	4.53176670e-04	7.98016810e-04	2.97356670e-04	0.00000000e+00
6.595          	8.38479500e-02	4.53323330e-04	7.98043580e-04	3.11302830e-04	0.00000000e+00
6.6            	7.86706070e-02	4.53463200e-04	7.98060560e-04	3.14506040e-04	0.00000000e+00
6.605          	1.95102980e-01	4.53596260e-04	7.98067670e-04	3.15695920e-04	0.00000000e+00
6.61           	1.07061930e-01	4.53722560e-04	7.98063080e-04	2.98269220e-04	0.00000000e+00
6.615          	7.24304190e-02	4.53842090e-04	7.98047570e-04	2.91695420e-04	0.00000000e+00
6.62           	5.45940430e-02	4.53954870e-04	7.98022230e-04	3.02907450e-04	0.00000000e+00
6.625          	5.99956040e-02	4.54060910e-04	7.97987050e-04	2.83148270e-04	0.00000000e+00
6.63           	5.67444140e-02	4.54160260e-04	7.97942100e-04	2.94140630e-04	0.00000000e+00
6.635          	7.04655130e-02	4.54252890e-04	7.97887290e-04	3.15803580e-04	0.00000000e+00
6.64           	9.23636900e-02	4.54338850e-04	7.97822690e-04	3.03307160e-04	0.00000000e+00
6.645          	6.69116680e-02	4.54418150e-04	7.97748280e-04	3.01024710e-04	0.00000000e+00
6.65           	1.93302610e-01	4.54490800e-04	7.97664070e-04	3.13656270e-04	0.00000000e+00
6.655          	6.11361380e-02	4.54556820e-04	7.97570050e-04	2.99244420e-04	0.00000000e+00
6.66           	6.40386640e-02	4.54616240e-04	7.97466260e-04	2.91589840e-04	0.00000000e+00
6.665          	7.38421080e-02	4.54669060e-04	7.97352660e-04	2.92474390e-04	0.00000000e+00
6.67           	5.77582190e-02	4.54715290e-04	7.97229260e-04	2.95348020e-04	0.00000000e+00
6.675          	8.08988960e-02	4.54754940e-04	7.97095760e-04	3.05496110e-04	0.00000000e+00
6.68           	5.37204790e-02	4.54788060e-04	7.96949770e-04	2.89562690e-04	0.00000000e+00
6.685          	5.97311730e-02	4.54814650e-04	7.96793990e-04	2.94991350e-04	0.00000000e+00
6.69           	3.66186320e-02	4.54834700e-04	7.96628390e-04	3.07226780e-04	0.00000000e+00
6.695          	4.67941610e-02	4.54848270e-04	7.96453040e-04	3.18509900e-04	0.00000000e+00
6.7            	4.66633220e-02	4.54855370e-04	7.96267940e-04	2.96992870e-04	0.00000000e+00
6.705          	5.68708920e-02	4.54856000e-04	7.96073070e-04	2.88875800e-04	0.00000000e+00
6.71           	5.09759730e-02	4.54850170e-04	7.95868420e-04	3.07644460e-04	0.00000000e+00
6.715          	1.91379700e-01	4.54837900e-04	7.95653990e-04	3.11510750e-04	0.00000000e+00
6.72           	2.29512610e-01	4.54819240e-04	7.95429850e-04	3.00692880e-04	0.00000000e+00
6.725          	1.49431190e-01	4.54794160e-04	7.95195920e-04	3.05846690e-04	0.00000000e+00
6.73           	6.95345830e-02	4.54762730e-04	7.94952280e-04	3.09432410e-04	0.00000000e+00
6.735          	4.56124590e-02	4.54724920e-04	7.94698900e-04	3.13787630e-04	0.00000000e+00
6.74           	8.30013920e-02	4.54680750e-04	7.94435750e-04	3.19968840e-04	0.00000000e+00
6.745          	6.32648570e-02	4.54630260e-04	7.94162890e-04	3.05693860e-04	0.00000000e+00
6.75           	5.75441520e-02	4.54573470e-04	7.93880330e-04	3.10081700e-04	0.00000000e+00
6.755          	6.55411420e-02	4.54510380e-04	7.93588040e-04	3.24481960e-04	0.00000000e+00
6.76           	5.11722900e-02	4.54441000e-04	7.93286010e-04	3.17655720e-04	0.00000000e+00
6.765          	4.51849000e-02	4.54365360e-04	7.92974290e-04	3.15186200e-04	0.00000000e+00
6.77           	5.24625780e-02	4.54283500e-04	7.92652900e-04	3.12902350e-04	0.00000000e+00
6.775          	1.26432370e-01	4.54195400e-04	7.92321800e-04	3.10299330e-04	0.00000000e+00
6.78           	5.32027210e-02	4.54101090e-04	7.91981010e-04	2.96760910e-04	0.00000000e+00
6.785          	1.17953640e-01	4.54000570e-04	7.91630510e-04	3.10574720e-04	0.00000000e+00
6.79           	4.02578570e-02	4.53893890e-04	7.91270350e-04	3.00056350e-04	0.00000000e+00
6.795          	4.88586740e-02	4.53781070e-04	7.90900560e-04	3.07138830e-04	0.00000000e+00
6.8            	9.32186920e-02	4.53662110e-04	7.90521090e-04	3.08265570e-04	0.00000000e+00
6.805          	5.04013910e-02	4.53537010e-04	7.90131960e-04	3.10085740e-04	0.00000000e+00
6.81           	9.79845510e-02	4.53405820e-04	7.89733180e-04	3.02456330e-04	0.00000000e+00
6.815          	5.04321250e-02	4.53268520e-04	7.89324740e-04	2.99872190e-04	0.00000000e+00
6.82           	3.10234990e-02	4.53125180e-04	7.88906710e-04	3.12572440e-04	0.00000000e+00
6.825          	5.80846130e-02	4.52975760e-04	7.88479010e-04	3.09613550e-04	0.00000000e+00
6.83           	5.76310740e-02	4.52820320e-04	7.88041710e-04	3.30775340e-04	0.00000000e+00
6.835          	6.49056020e-02	4.52658860e-04	7.87594810e-04	3.19499520e-04	0.00000000e+00
6.84           	6.54302090e-02	4.52491420e-04	7.87138340e-04	3.22352030e-04	0.00000000e+00
6.845          	5.84315000e-02	4.52317990e-04	7.86672250e-04	3.35317950e-04	0.00000000e+00
6.85           	3.60933120e-02	4.52138590e-04	7.86196580e-04	3.39680780e-04	0.00000000e+00
6.855          	6.08234040e-02	4.51953240e-04	7.85711300e-04	3.25781480e-04	0.00000000e+00
6.86           	6.02934420e-02	4.51761960e-04	7.85216470e-04	3.21889970e-04	0.00000000e+00
6.865          	1.56878770e-01	4.51564790e-04	7.84712110e-04	3.16581630e-04	0.00000000e+00
6.87           	2.12693800e-01	4.51361710e-04	7.84198170e-04	3.15661250e-04	0.00000000e+00
6.875          	5.91871310e-02	4.51152770e-04	7.83674720e-04	3.25686280e-04	0.00000000e+00
6.88           	8.14943470e-02	4.50937970e-04	7.83141720e-04	3.15691040e-04	0.00000000e+00
6.885          	7.13699640e-02	4.50717320e-04	7.82599170e-04	3.11596880e-04	0.00000000e+00
6.89           	8.99246120e-02	4.50490850e-04	7.82047130e-04	3.08856700e-04	0.00000000e+00
6.895          	5.92018010e-02	4.50258590e-04	7.81485590e-04	3.07084880e-04	0.00000000e+00
6.9            	6.70855020e-02	4.50020540e-04	7.80914550e-04	3.05645000e-04	0.00000000e+00
6.905          	2.33150230e-01	4.49776740e-04	7.80334060e-04	3.30403560e-04	0.00000000e+00
6.91           	5.84779530e-02	4.49527170e-04	7.79744060e-04	3.09106550e-04	0.00000000e+00
6.915          	8.77015300e-02	4.49271880e-04	7.79144620e-04	3.11335650e-04	0.00000000e+00
6.92           	5.20179190e-02	4.49010870e-04	7.78535700e-04	3.09231990e-04	0.00000000e+00
6.925          	6.50690170e-02	4.48744180e-04	7.77917370e-04	3.10233140e-04	0.00000000e+00
6.93           	1.06853830e-01	4.48471790e-04	7.77289570e-04	3.24003710e-04	0.00000000e+00
6.935          	6.54014840e-02	4.48193770e-04	7.76652390e-04	3.20197600e-04	0.00000000e+00
6.94           	5.41488370e-02	4.47910100e-04	7.76005790e-04	3.10940920e-04	0.00000000e+00
6.945          	2.04696350e-01	4.47620810e-04	7.75349790e-04	3.16361120e-04	0.00000000e+00
6.95           	8.58692350e-02	4.47325910e-04	7.74684390e-04	3.16059200e-04	0.00000000e+00
6.955          	2.08328490e-01	4.47025410e-04	7.74009600e-04	3.24470610e-04	0.00000000e+00
6.96           	2.14277470e-01	4.46719360e-04	7.73325460e-04	3.16696130e-04	0.00000000e+00
6.965          	8.20566560e-02	4.46407780e-04	7.72631990e-04	3.24530100e-04	0.00000000e+00
6.97           	1.66925730e-01	4.46090640e-04	7.71929150e-04	3.27635670e-04	0.00000000e+00
6.975          	6.02873480e-02	4.45768010e-04	7.71217010e-04	3.29752050e-04	0.00000000e+00
6.98           	8.27417220e-02	4.45439880e-04	7.70495550e-04	3.13622040e-04	0.00000000e+00
6.985          	4.71657870e-02	4.45106280e-04	7.69764780e-04	3.27113670e-04	0.00000000e+00
6.99           	6.48044350e-02	4.44767200e-04	7.69024690e-04	3.06925210e-04	0.00000000e+00
6.995          	3.28146620e-02	4.44422690e-04	7.68275330e-04	3.27671160e-04	0.00000000e+00
7              	9.90705520e-02	4.44072780e-04	7.67516750e-04	3.17985990e-04	0.00000000e+00
7.005          	5.32998860e-02	4.43717460e-04	7.66748900e-04	3.13544550e-04	0.00000000e+00
7.01           	7.33697600e-02	4.43356760e-04	7.65971800e-04	3.34831450e-04	0.00000000e+00
7.015          	6.31941830e-02	4.42990670e-04	7.65185450e-04	3.02311770e-04	0.00000000e+00
7.02           	6.83025470e-02	4.42619270e-04	7.64389930e-04	3.13222980e-04	0.00000000e+00
7.025          	3.40406100e-02	4.42242520e-04	7.63585200e-04	3.28114120e-04	0.00000000e+00
7.03           	9.05686080e-02	4.41860460e-04	7.62771250e-04	3.14097640e-04	0.00000000e+00
7.035          	6.02674140e-02	4.41473120e-04	7.61948180e-04	3.27894100e-04	0.00000000e+00
7.04           	6.98729770e-02	4.41080510e-04	7.61115930e-04	3.07605940e-04	0.00000000e+00
7.045          	1.35409140e-01	4.40682630e-04	7.60274520e-04	3.24852870e-04	0.00000000e+00
7.05           	4.54544000e-02	4.40279520e-04	7.59423990e-04	3.31536990e-04	0.00000000e+00
7.055          	9.31771570e-02	4.39871200e-04	7.58564360e-04	3.25079730e-04	0.00000000e+00
7.06           	8.85500070e-02	4.39457690e-04	7.57695660e-04	2.98897340e-04	0.00000000e+00
7.065          	1.12250300e-01	4.39038990e-04	7.56817830e-04	3.16046490e-04	0.00000000e+00
7.07           	5.38943420e-02	4.38615120e-04	7.55930940e-04	3.23827360e-04	0.00000000e+00
7.075          	1.25123830e-01	4.38186120e-04	7.55035010e-04	3.13238560e-04	0.00000000e+00
7.08           	9.90030760e-02	4.37752000e-04	7.54130040e-04	3.06207470e-04	0.00000000e+00
7.085          	5.07701330e-02	4.37312790e-04	7.53216070e-04	2.97755880e-04	0.00000000e+00
7.09           	7.53750240e-02	4.36868480e-04	7.52293080e-04	3.11219690e-04	0.00000000e+00
7.095          	1.64062440e-01	4.36419090e-04	7.51361070e-04	3.28905720e-04	0.00000000e+00
7.1            	8.53915180e-02	4.35964670e-04	7.50420130e-04	3.12991880e-04	0.00000000e+00
7.105          	7.05056310e-02	4.35505200e-04	7.49470190e-04	3.06261770e-04	0.00000000e+00
7.11           	6.47226410e-02	4.35040740e-04	7.48511350e-04	3.35377460e-04	0.00000000e+00
7.115          	1.25977120e-01	4.34571280e-04	7.47543570e-04	3.23041120e-04	0.00000000e+00
7.12           	7.07949870e-02	4.34096850e-04	7.46566880e-04	3.04534060e-04	0.00000000e+00
7.125          	1.58175300e-01	4.33617440e-04	7.45581270e-04	3.08664330e-04	0.00000000e+00
7.13           	1.18222170e-01	4.33133130e-04	7.44586840e-04	3.19234810e-04	0.00000000e+00
7.135          	1.80445740e-01	4.32643870e-04	7.43583500e-04	3.04186040e-04	0.00000000e+00
7.14           	6.26031680e-02	4.32149720e-04	7.42571350e-04	2.93912230e-04	0.00000000e+00
7.145          	6.35572680e-02	4.31650720e-04	7.41550400e-04	2.99270290e-04	0.00000000e+00
7.15           	6.71446580e-02	4.31146820e-04	7.40520610e-04	2.88558060e-04	0.00000000e+00
7.155          	2.50174360e-01	4.30638110e-04	7.39482070e-04	3.03084240e-04	0.00000000e+00
7.16           	2.57065760e-01	4.30124560e-04	7.38434750e-04	3.06121060e-04	0.00000000e+00
7.165          	1.92580530e-01	4.29606210e-04	7.37378670e-04	3.12681620e-04	0.00000000e+00
7.17           	7.38747820e-02	4.29083050e-04	7.36313840e-04	3.05639980e-04	0.00000000e+00
7.175          	1.40575700e-01	4.28555140e-04	7.35240310e-04	3.05282000e-04	0.00000000e+00
7.18           	7.13150520e-02	4.28022500e-04	7.34158120e-04	3.12959590e-04	0.00000000e+00
7.185          	8.41675270e-02	4.27485120e-04	7.33067250e-04	3.16545110e-04	0.00000000e+00
7.19           	7.88340570e-02	4.26943030e-04	7.31967710e-04	3.13305750e-04	0.00000000e+00
7.195          	7.94398960e-02	4.26396220e-04	7.30859510e-04	3.00099650e-04	0.00000000e+00
7.2            	2.17101790e-01	4.25844770e-04	7.29742730e-04	3.23583500e-04	0.00000000e+00
7.205          	1.80476740e-01	4.25288650e-04	7.28617320e-04	3.02878160e-04	0.00000000e+00
7.21           	7.53979790e-02	4.24727890e-04	7.27483350e-04	3.13224030e-04	0.00000000e+00
7.215          	1.52542670e-01	4.24162520e-04	7.26340820e-04	3.13302460e-04	0.00000000e+00
7.22           	8.31950370e-02	4.23592560e-04	7.25189760e-04	2.98935350e-04	0.00000000e+00
7.225          	1.93011940e-01	4.23018010e-04	7.24030180e-04	3.00403830e-04	0.00000000e+00
7.23           	7.58870840e-02	4.22438930e-04	7.22862140e-04	3.12221790e-04	0.00000000e+00
7.235          	5.57233890e-02	4.21855290e-04	7.21685600e-04	3.17944790e-04	0.00000000e+00
7.24           	4.83611890e-02	4.21267100e-04	7.20500570e-04	3.18967290e-04	0.00000000e+00
7.245          	6.16015420e-02	4.20674440e-04	7.19307160e-04	3.06536430e-04	0.00000000e+00
7.25           	1.20595860e-01	4.20077290e-04	7.18105310e-04	3.33223870e-04	0.00000000e+00
7.255          	7.32395480e-02	4.19475650e-04	7.16895050e-04	3.19508060e-04	0.00000000e+00
7.26           	1.88281190e-01	4.18869580e-04	7.15676430e-04	3.16581260e-04	0.00000000e+00
7.265          	1.68252650e-01	4.18259100e-04	7.14449500e-04	3.26335360e-04	0.00000000e+00
7.27           	6.38112600e-02	4.17644200e-04	7.13214220e-04	3.25616140e-04	0.00000000e+00
7.275          	1.71069120e-01	4.17024900e-04	7.11970630e-04	3.28203010e-04	0.00000000e+00
7.28           	7.46765670e-02	4.16401230e-04	7.10718760e-04	3.26473410e-04	0.00000000e+00
7.285          	3.51123070e-02	4.15773190e-04	7.09458610e-04	3.08893350e-04	0.00000000e+00
7.29           	7.34594920e-02	4.15140850e-04	7.08190260e-04	3.12979170e-04	0.00000000e+00
7.295          	8.47976020e-02	4.14504180e-04	7.06913680e-04	3.15443920e-04	0.00000000e+00
7.3            	3.31012970e-01	4.13863210e-04	7.05628910e-04	3.18747950e-04	0.00000000e+00
7.305          	6.77644900e-02	4.13217950e-04	7.04335930e-04	3.18273560e-04	0.00000000e+00
7.31           	5.75760910e-02	4.12568440e-04	7.03034840e-04	3.29968380e-04	0.00000000e+00
7.315          	2.37182880e-01	4.11914700e-04	7.01725620e-04	3.21168440e-04	0.00000000e+00
7.32           	2.35308680e-01	4.11256730e-04	7.00408310e-04	3.24102900e-04	0.00000000e+00
7.325          	9.25337630e-02	4.10594580e-04	6.99082950e-04	3.23054980e-04	0.00000000e+00
7.33           	5.02439370e-02	4.09928220e-04	6.97749490e-04	3.16271780e-04	0.00000000e+00
7.335          	7.34820650e-02	4.09257700e-04	6.96408020e-04	3.21599770e-04	0.00000000e+00
7.34           	7.97895530e-02	4.08583030e-04	6.95058540e-04	3.27483220e-04	0.00000000e+00
7.345          	1.92481120e-01	4.07904240e-04	6.93701090e-04	3.20005920e-04	0.00000000e+00
7.35           	9.57240750e-02	4.07221350e-04	6.92335690e-04	3.18843410e-04	0.00000000e+00
7.355          	5.96543740e-02	4.06534370e-04	6.90962380e-04	3.08023250e-04	0.00000000e+00
7.36           	1.37244210e-01	4.05843320e-04	6.89581150e-04	3.02612520e-04	0.00000000e+00
7.365          	7.99756390e-02	4.05148190e-04	6.88192000e-04	3.22449460e-04	0.00000000e+00
7.37           	9.00963990e-02	4.04449040e-04	6.86795020e-04	3.28764160e-04	0.00000000e+00
7.375          	1.87363220e-01	4.03745900e-04	6.85390240e-04	3.15207260e-04	0.00000000e+00
7.38           	2.41026780e-01	4.03038750e-04	6.83977630e-04	3.13312660e-04	0.00000000e+00
7.385          	4.62112080e-02	4.02327620e-04	6.82557250e-04	3.29845210e-04	0.00000000e+00
7.39           	7.06723920e-02	4.01612510e-04	6.81129080e-04	3.34737380e-04	0.00000000e+00
7.395          	7.15222990e-02	4.00893470e-04	6.79693200e-04	3.13788530e-04	0.00000000e+00
7.4            	4.77708240e-02	4.00170520e-04	6.78249620e-04	3.16279500e-04	0.00000000e+00
7.405          	1.51964530e-01	3.99443680e-04	6.76798400e-04	3.24992160e-04	0.00000000e+00
7.41           	1.06621450e-01	3.98712950e-04	6.75339510e-04	3.09982150e-04	0.00000000e+00
7.415          	1.51905330e-01	3.97978340e-04	6.73873000e-04	3.10470260e-04	0.00000000e+00
7.42           	1.54726070e-01	3.97239880e-04	6.72398860e-04	3.25669600e-04	0.00000000e+00
7.425          	7.30318860e-02	3.96497590e-04	6.70917170e-04	3.28744290e-04	0.00000000e+00
7.43           	6.92848550e-02	3.95751500e-04	6.69427940e-04	3.36265270e-04	0.00000000e+00
7.435          	1.87491060e-01	3.95001640e-04	6.67931230e-04	3.19875400e-04	0.00000000e+00
7.44           	7.68282370e-02	3.94248000e-04	6.66427020e-04	3.09260850e-04	0.00000000e+00
7.445          	5.67597670e-02	3.93490600e-04	6.64915340e-04	3.20690560e-04	0.00000000e+00
7.45           	6.21328890e-02	3.92729460e-04	6.63396230e-04	3.17149840e-04	0.00000000e+00
7.455          	1.78153370e-01	3.91964600e-04	6.61869710e-04	3.09037140e-04	0.00000000e+00
7.46           	7.30751310e-02	3.91196030e-04	6.60335790e-04	3.31942030e-04	0.00000000e+00
7.465          	2.24703910e-01	3.90423800e-04	6.58794540e-04	3.36100820e-04	0.00000000e+00
7.47           	1.28180610e-01	3.89647920e-04	6.57246010e-04	3.36495500e-04	0.00000000e+00
7.475          	7.92043000e-02	3.88868390e-04	6.55690170e-04	3.54761160e-04	0.00000000e+00
7.48           	8.26738330e-02	3.88085230e-04	6.54127060e-04	3.46459410e-04	0.00000000e+00
7.485          	1.20917550e-01	3.87298450e-04	6.52556690e-04	3.31206790e-04	0.00000000e+00
7.49           	7.00486930e-02	3.86508120e-04	6.50979160e-04	3.43442850e-04	0.00000000e+00
7.495          	1.91686640e-01	3.85714200e-04	6.49394440e-04	3.43552830e-04	0.00000000e+00
7.5            	9.65191050e-02	3.84916720e-04	6.47802550e-04	3.32289360e-04	0.00000000e+00
7.505          	1.73874770e-01	3.84115730e-04	6.46203580e-04	3.46698730e-04	0.00000000e+00
7.51           	7.65877530e-02	3.83311230e-04	6.44597520e-04	3.38229920e-04	0.00000000e+00
7.515          	2.33617410e-01	3.82503210e-04	6.42984360e-04	3.42286210e-04	0.00000000e+00
7.52           	1.02582310e-01	3.81691740e-04	6.41364230e-04	3.24014660e-04	0.00000000e+00
7.525          	2.57709840e-01	3.80876780e-04	6.39737050e-04	3.24125970e-04	0.00000000e+00
7.53           	5.75806650e-02	3.80058400e-04	6.38102930e-04	3.17640820e-04	0.00000000e+00
7.535          	1.55862150e-01	3.79236620e-04	6.36461900e-04	3.33521690e-04	0.00000000e+00
7.54           	7.85361460e-02	3.78411420e-04	6.34813950e-04	3.13223870e-04	0.00000000e+00
7.545          	5.10279750e-02	3.77582840e-04	6.33159110e-04	3.02265140e-04	0.00000000e+00
7.55           	5.34800050e-02	3.76750870e-04	6.31497410e-04	2.72106500e-04	0.00000000e+00
7.555          	1.44148400e-01	3.75915560e-04	6.29828900e-04	3.02199100e-04	0.00000000e+00
7.56           	7.55280860e-02	3.75076930e-04	6.28153620e-04	2.84786050e-04	0.00000000e+00
7.565          	7.58281740e-02	3.74234990e-04	6.26471600e-04	2.75539040e-04	0.00000000e+00
7.57           	2.34927180e-01	3.73389760e-04	6.24782850e-04	2.84508020e-04	0.00000000e+00
7.575          	1.74982680e-01	3.72541270e-04	6.23087440e-04	2.94487870e-04	0.00000000e+00
7.58           	6.75371260e-02	3.71689500e-04	6.21385330e-04	3.14761450e-04	0.00000000e+00
7.585          	8.35000260e-02	3.70834510e-04	6.19676640e-04	3.03505790e-04	0.00000000e+00
7.59           	8.43102610e-02	3.69976270e-04	6.17961310e-04	2.94583430e-04	0.00000000e+00
7.595          	6.82687410e-02	3.69114860e-04	6.16239460e-04	3.22494450e-04	0.00000000e+00
7.6            	1.04604680e-01	3.68250240e-04	6.14511040e-04	2.97946510e-04	0.00000000e+00
7.605          	7.75783400e-02	3.67382480e-04	6.12776170e-04	2.87696990e-04	0.00000000e+00
7.61           	8.09538600e-02	3.66511550e-04	6.11034800e-04	3.04358980e-04	0.00000000e+00
7.615          	5.20415040e-02	3.65637490e-04	6.09287000e-04	2.99523830e-04	0.00000000e+00
7.62           	1.69439890e-01	3.64760330e-04	6.07532820e-04	2.80194610e-04	0.00000000e+00
7.625          	7.03154830e-02	3.63880080e-04	6.05772270e-04	2.89208900e-04	0.00000000e+00
7.63           	5.96169340e-02	3.62996760e-04	6.04005420e-04	2.67461570e-04	0.00000000e+00
7.635          	7.54994050e-02	3.62110380e-04	6.02232250e-04	2.66433100e-04	0.00000000e+00
7.64           	2.49240740e-01	3.61220960e-04	6.00452810e-04	2.77965000e-04	0.00000000e+00
7.645          	9.49458100e-02	3.60328490e-04	5.98667100e-04	2.77545540e-04	0.00000000e+00
7.65           	1.40334900e-01	3.59433050e-04	5.96875250e-04	2.89991000e-04	0.00000000e+00
7.655          	8.83917900e-02	3.58534600e-04	5.95077190e-04	2.51013020e-04	0.00000000e+00
7.66           	5.46740980e-02	3.57633210e-04	5.93273050e-04	2.83739940e-04	0.00000000e+00
7.665          	8.97172040e-02	3.56728840e-04	5.91462760e-04	2.64064520e-04	0.00000000e+00
7.67           	1.61765680e-01	3.55821560e-04	5.89646460e-04	2.66807960e-04	0.00000000e+00
7.675          	1.57186450e-01	3.54911370e-04	5.87824110e-04	2.72152650e-04	0.00000000e+00
7.68           	6.56798720e-02	3.53998250e-04	5.85995740e-04	2.56483450e-04	0.00000000e+00
7.685          	5.09645830e-02	3.53082270e-04	5.84161430e-04	2.40165810e-04	0.00000000e+00
7.69           	8.93609930e-02	3.52163450e-04	5.82321230e-04	2.80323090e-04	0.00000000e+00
7.695          	4.69144610e-02	3.51241770e-04	5.80475130e-04	2.65614310e-04	0.00000000e+00
7.7            	1.89615530e-01	3.50317270e-04	5.78623160e-04	2.61992640e-04	0.00000000e+00
7.705          	6.75446380e-02	3.49389960e-04	5.76765370e-04	2.60556960e-04	0.00000000e+00
7.71           	1.25886910e-01	3.48459840e-04	5.74901770e-04	2.62624700e-04	0.00000000e+00
7.715          	1.17733600e-01	3.47526970e-04	5.73032480e-04	2.70825840e-04	0.00000000e+00
7.72           	9.57491790e-02	3.46591350e-04	5.71157450e-04	2.47086580e-04	0.00000000e+00
7.725          	1.14999390e-01	3.45652960e-04	5.69276720e-04	2.73110740e-04	0.00000000e+00
7.73           	1.58463840e-01	3.44711870e-04	5.67390360e-04	3.29199540e-04	0.00000000e+00
7.735          	6.86518560e-02	3.43768100e-04	5.65498430e-04	2.68176410e-04	0.00000000e+00
7.74           	1.00619170e-01	3.42821610e-04	5.63600890e-04	2.74493620e-04	0.00000000e+00
7.745          	1.43119660e-01	3.41872490e-04	5.61697860e-04	2.86228460e-04	0.00000000e+00
7.75           	1.04793810e-01	3.40920690e-04	5.59789280e-04	2.47057830e-04	0.00000000e+00
7.755          	3.08938690e-01	3.39966260e-04	5.57875260e-04	2.56248060e-04	0.00000000e+00
7.76           	9.42599980e-02	3.39009240e-04	5.55955850e-04	2.40820120e-04	0.00000000e+00
7.765          	9.29997730e-02	3.38049600e-04	5.54031010e-04	2.67722310e-04	0.00000000e+00
7.77           	6.94036720e-02	3.37087380e-04	5.52100830e-04	2.47750500e-04	0.00000000e+00
7.775          	1.06079110e-01	3.36122610e-04	5.50165340e-04	2.51865240e-04	0.00000000e+00
7.78           	1.80474480e-01	3.35155290e-04	5.48224570e-04	2.43303180e-04	0.00000000e+00
7.785          	4.43515420e-02	3.34185460e-04	5.46278600e-04	2.65729770e-04	0.00000000e+00
7.79           	6.85142330e-02	3.33213120e-04	5.44327400e-04	2.51653730e-04	0.00000000e+00
7.795          	3.51113070e-02	3.32238270e-04	5.42371030e-04	2.71219710e-04	0.00000000e+00
7.8            	2.56996020e-01	3.31260950e-04	5.40409530e-04	2.23942610e-04	0.00000000e+00
7.805          	1.18097100e-01	3.30281150e-04	5.38442910e-04	2.36436850e-04	0.00000000e+00
7.81           	1.02421500e-01	3.29298940e-04	5.36471280e-04	2.07812750e-04	0.00000000e+00
7.815          	3.13278910e-01	3.28314290e-04	5.34494630e-04	2.58607180e-04	0.00000000e+00
7.82           	1.13506270e-01	3.27327230e-04	5.32512960e-04	2.29597890e-04	0.00000000e+00
7.825          	6.31860810e-02	3.26337800e-04	5.30526410e-04	2.57166770e-04	0.00000000e+00
7.83           	2.65060970e-01	3.25345970e-04	5.28534910e-04	2.60558000e-04	0.00000000e+00
7.835          	6.06709290e-02	3.24351790e-04	5.26538560e-04	2.49425330e-04	0.00000000e+00
7.84           	1.28756760e-01	3.23355300e-04	5.24537420e-04	2.37999120e-04	0.00000000e+00
7.845          	6.03491280e-02	3.22356480e-04	5.22531470e-04	2.48504860e-04	0.00000000e+00
7.85           	6.40410100e-02	3.21355330e-04	5.20520750e-04	2.74233420e-04	0.00000000e+00
7.855          	1.18973920e-01	3.20351920e-04	5.18505360e-04	2.38883660e-04	0.00000000e+00
7.86           	1.54687610e-01	3.19346230e-04	5.16485280e-04	2.64896540e-04	0.00000000e+00
7.865          	1.92673460e-01	3.18338290e-04	5.14460570e-04	2.33039450e-04	0.00000000e+00
7.87           	1.74871980e-01	3.17328110e-04	5.12431260e-04	2.20780200e-04	0.00000000e+00
7.875          	4.64458980e-02	3.16315710e-04	5.10397400e-04	2.15978980e-04	0.00000000e+00
7.88           	1.37815700e-01	3.15301110e-04	5.08359020e-04	2.29209510e-04	0.00000000e+00
7.885          	4.54066690e-02	3.14284320e-04	5.06316160e-04	2.27950390e-04	0.00000000e+00
7.89           	1.22042260e-01	3.13265370e-04	5.04268870e-04	2.59948040e-04	0.00000000e+00
7.895          	2.36081910e-01	3.12244240e-04	5.02217150e-04	2.67363560e-04	0.00000000e+00
7.9            	5.83381520e-02	3.11220990e-04	5.00161090e-04	2.30698250e-04	0.00000000e+00
7.905          	9.50415190e-02	3.10195630e-04	4.98100720e-04	2.46576570e-04	0.00000000e+00
7.91           	2.52080490e-01	3.09168180e-04	4.96036100e-04	2.44486280e-04	0.00000000e+00
7.915          	8.28716590e-02	3.08138620e-04	4.93967190e-04	2.21891180e-04	0.00000000e+00
7.92           	5.21216050e-02	3.07107020e-04	4.91894130e-04	2.36787180e-04	0.00000000e+00
7.925          	6.03685830e-02	3.06073340e-04	4.89816860e-04	2.34926420e-04	0.00000000e+00
7.93           	2.14567320e-01	3.05037650e-04	4.87735510e-04	2.56082330e-04	0.00000000e+00
7.935          	7.16251240e-02	3.03999940e-04	4.85650070e-04	1.90214530e-04	0.00000000e+00
7.94           	2.84804150e-01	3.02960210e-04	4.83560580e-04	2.14243120e-04	0.00000000e+00
7.945          	1.46464790e-01	3.01918510e-04	4.81467090e-04	2.28818760e-04	0.00000000e+00
7.95           	1.33161610e-01	3.00874830e-04	4.79369640e-04	2.47557790e-04	0.00000000e+00
7.955          	8.74143780e-02	2.99829180e-04	4.77268240e-04	2.50792800e-04	0.00000000e+00
7.96           	1.19990170e-01	2.98781610e-04	4.75162980e-04	2.66715850e-04	0.00000000e+00
7.965          	1.33678580e-01	2.97732130e-04	4.73053880e-04	2.90437920e-04	0.00000000e+00
7.97           	9.08850920e-02	2.96680740e-04	4.70941000e-04	2.43324890e-04	0.00000000e+00
7.975          	9.59027830e-02	2.95627470e-04	4.68824350e-04	2.56518130e-04	0.00000000e+00
7.98           	1.06796220e-01	2.94572320e-04	4.66703980e-04	2.53073180e-04	0.00000000e+00
7.985          	6.76319630e-02	2.93515330e-04	4.64579940e-04	2.59374180e-04	0.00000000e+00
7.99           	2.47582660e-01	2.92456490e-04	4.62452270e-04	2.53734400e-04	0.00000000e+00
7.995          	2.67632340e-01	2.91395840e-04	4.60320990e-04	2.37939370e-04	0.00000000e+00
8              	2.62554110e-01	2.90333380e-04	4.58186170e-04	2.94803850e-04	0.00000000e+00
8.005          	1.04133060e-01	2.89269130e-04	4.56047830e-04	2.16504080e-04	0.00000000e+00
8.01           	5.25809740e-02	2.88203110e-04	4.53906020e-04	2.27716220e-04	0.00000000e+00
8.015          	1.68086400e-01	2.87135330e-04	4.51760770e-04	2.32098210e-04	0.00000000e+00
8.02           	1.85185120e-01	2.86065810e-04	4.49612140e-04	2.38260190e-04	0.00000000e+00
8.025          	1.82773900e-01	2.84994570e-04	4.47460160e-04	2.45579580e-04	0.00000000e+00
8.03           	8.97343970e-02	2.83921640e-04	4.45304900e-04	1.99820230e-04	0.00000000e+00
8.035          	2.12064080e-01	2.82847000e-04	4.43146350e-04	2.13799530e-04	0.00000000e+00
8.04           	8.12954070e-02	2.81770670e-04	4.40984550e-04	1.88878940e-04	0.00000000e+00
8.045          	1.50859450e-01	2.80692530e-04	4.38504760e-04	2.00438240e-04	0.00000000e+00
8.05           	5.44707370e-02	2.79612630e-04	4.36231740e-04	1.51518430e-04	0.00000000e+00
8.055          	2.21085900e-01	2.78531030e-04	4.34025740e-04	1.98005520e-04	0.00000000e+00
8.06           	2.15242220e-01	2.77447810e-04	4.31840130e-04	1.65336600e-04	0.00000000e+00
8.065          	1.97760990e-01	2.76362990e-04	4.29661420e-04	1.46377720e-04	0.00000000e+00
8.07           	2.43836910e-01	2.75276580e-04	4.27481060e-04	1.63766970e-04	0.00000000e+00
8.075          	1.25674930e-01	2.74188620e-04	4.25298240e-04	1.44525120e-04	0.00000000e+00
8.08           	9.59929490e-02	2.73099140e-04	4.23112710e-04	1.35557560e-04	0.00000000e+00
8.085          	1.81913040e-01	2.72008120e-04	4.20924410e-04	1.43937050e-04	0.00000000e+00
8.09           	1.81608740e-01	2.70915580e-04	4.18736070e-04	1.48830030e-04	0.00000000e+00
8.095          	1.05273020e-01	2.69821560e-04	4.16543210e-04	1.65369460e-04	0.00000000e+00
8.1            	2.32425340e-01	2.68726060e-04	4.14347060e-04	1.38890570e-04	0.00000000e+00
8.105          	1.19235180e-01	2.67629110e-04	4.12148050e-04	1.95248020e-04	0.00000000e+00
8.11           	1.79154300e-01	2.66530720e-04	4.09946350e-04	1.13247680e-04	0.00000000e+00
8.115          	2.44507300e-01	2.65430880e-04	4.07742060e-04	8.95504660e-05	0.00000000e+00
8.12           	2.90530830e-01	2.64329640e-04	4.05535230e-04	1.31528840e-04	0.00000000e+00
8.125          	1.26079440e-01	2.63226990e-04	4.03329530e-04	9.97977410e-05	0.00000000e+00
8.13           	2.52750580e-01	2.62122960e-04	4.01118970e-04	1.82358420e-04	0.00000000e+00
8.135          	3.77547390e-01	2.61017580e-04	3.98905200e-04	1.61155250e-04	0.00000000e+00
8.14           	1.37092670e-01	2.59910840e-04	3.96688790e-04	1.29926420e-04	0.00000000e+00
8.145          	6.85086410e-02	2.58802760e-04	3.94469960e-04	1.44455120e-04	0.00000000e+00
8.15           	1.13439510e-01	2.57693340e-04	3.92248820e-04	1.44900570e-04	0.00000000e+00
8.155          	2.77739040e-01	2.56582630e-04	3.90025430e-04	1.56263070e-04	0.00000000e+00
8.16           	1.23541600e-01	2.55470640e-04	3.87799830e-04	1.12017000e-04	0.00000000e+00
8.165          	1.08492240e-01	2.54357370e-04	3.85572070e-04	1.57901570e-04	0.00000000e+00
8.17           	1.39472340e-01	2.53242840e-04	3.83342200e-04	1.43327910e-04	0.00000000e+00
8.175          	7.49353150e-02	2.52127060e-04	3.81110260e-04	1.45255100e-04	0.00000000e+00
8.18           	1.13817220e-01	2.51010050e-04	3.78881150e-04	1.31232000e-04	0.00000000e+00
8.185          	1.83841170e-01	2.49891820e-04	3.76646820e-04	1.46033550e-04	0.00000000e+00
8.19           	9.09013740e-02	2.48772400e-04	3.74409450e-04	1.20457690e-04	0.00000000e+00
8.195          	1.86027720e-01	2.47651810e-04	3.72169810e-04	1.18709360e-04	0.00000000e+00
8.2            	2.07864260e-01	2.46530030e-04	3.69928190e-04	1.22268730e-04	0.00000000e+00
8.205          	1.25182200e-01	2.45407110e-04	3.67684700e-04	1.10814040e-04	0.00000000e+00
8.21           	8.87001180e-02	2.44283050e-04	3.65439430e-04	9.71131110e-05	0.00000000e+00
8.215          	8.80249680e-02	2.43157890e-04	3.63192410e-04	1.35542140e-04	0.00000000e+00
8.22           	1.23016960e-01	2.42031610e-04	3.60943690e-04	1.28185700e-04	0.00000000e+00
8.225          	1.67288510e-01	2.40904230e-04	3.58693330e-04	1.54949500e-04	0.00000000e+00
8.23           	1.80252350e-01	2.39775750e-04	3.56441360e-04	1.25972570e-04	0.00000000e+00
8.235          	8.34558030e-02	2.38646240e-04	3.54187830e-04	1.04529530e-04	0.00000000e+00
8.24           	8.95566350e-02	2.37515660e-04	3.51932770e-04	1.29286440e-04	0.00000000e+00
8.245          	1.28834380e-01	2.36384080e-04	3.49676230e-04	1.27141190e-04	0.00000000e+00
8.25           	1.05719210e-01	2.35251450e-04	3.47418260e-04	1.24211920e-04	0.00000000e+00
8.255          	9.15886860e-02	2.34117840e-04	3.45158900e-04	1.12468750e-04	0.00000000e+00
8.26           	7.46810830e-02	2.32983240e-04	3.42898180e-04	1.10742640e-04	0.00000000e+00
8.265          	4.46365680e-02	2.31847660e-04	3.40636160e-04	1.02981450e-04	0.00000000e+00
8.27           	1.35247090e-01	2.30711130e-04	3.38379460e-04	8.69649250e-05	0.00000000e+00
8.275          	1.71245730e-01	2.29573660e-04	3.36117130e-04	9.21149650e-05	0.00000000e+00
8.28           	1.07568890e-01	2.28435250e-04	3.33852160e-04	7.17963780e-05	0.00000000e+00
8.285          	5.04745790e-02	2.27295950e-04	3.31585540e-04	7.52247730e-05	0.00000000e+00
8.29           	9.30361460e-02	2.26155730e-04	3.29317660e-04	9.82350160e-05	0.00000000e+00
8.295          	1.06159580e-01	2.25014660e-04	3.27048670e-04	5.57003020e-05	0.00000000e+00
8.3            	1.95372550e-01	2.23872680e-04	3.24778650e-04	5.60615010e-05	0.00000000e+00
8.305          	1.45754860e-01	2.22729870e-04	3.22507640e-04	6.93333310e-05	0.00000000e+00
8.31           	1.16185460e-01	2.21586210e-04	3.20235710e-04	1.34628620e-04	0.00000000e+00
8.315          	9.67651370e-02	2.20441740e-04	3.17962890e-04	7.73209700e-05	0.00000000e+00
8.32           	1.40533920e-01	2.19296470e-04	3.15689220e-04	6.34259320e-05	0.00000000e+00
8.325          	2.08076360e-01	2.18150380e-04	3.13414760e-04	6.34432680e-05	0.00000000e+00
8.33           	4.65683130e-01	2.17003510e-04	3.11139530e-04	8.47873140e-05	0.00000000e+00
8.335          	7.58453870e-02	2.15855900e-04	3.08863590e-04	7.40534670e-05	0.00000000e+00
8.34           	1.04898560e-01	2.14707530e-04	3.06586980e-04	6.96697260e-05	0.00000000e+00
8.345          	8.12451680e-02	2.13558410e-04	3.04309730e-04	8.96447570e-05	0.00000000e+00
8.35           	6.00041730e-02	2.12408560e-04	3.02031900e-04	6.49572750e-05	0.00000000e+00
8.355          	1.13039300e-01	2.11258030e-04	2.99753520e-04	7.74464050e-05	0.00000000e+00
8.36           	2.15192110e-01	2.10106790e-04	2.97474640e-04	9.60370220e-05	0.00000000e+00
8.365          	8.38418430e-02	2.08954860e-04	2.95195290e-04	7.81404990e-05	0.00000000e+00
8.37           	1.55356000e-01	2.07802290e-04	2.92915530e-04	6.80807520e-05	0.00000000e+00
8.375          	2.52472120e-01	2.06649050e-04	2.90635380e-04	1.15758900e-04	0.00000000e+00
8.38           	2.45590320e-01	2.05495200e-04	2.88354910e-04	1.49972580e-04	0.00000000e+00
8.385          	2.36405650e-01	2.04340700e-04	2.86074130e-04	1.18970260e-04	0.00000000e+00
8.39           	7.96760220e-02	2.03185620e-04	2.83793110e-04	1.12639690e-04	0.00000000e+00
8.395          	1.11829270e-01	2.02029940e-04	2.81511880e-04	8.78322540e-05	0.00000000e+00
8.4            	1.26597720e-01	2.00873680e-04	2.79230480e-04	1.55031340e-04	0.00000000e+00
8.405          	1.08321100e-01	1.99716840e-04	2.76948950e-04	8.18549300e-05	0.00000000e+00
8.41           	1.13964950e-01	1.98559480e-04	2.74667340e-04	8.74194010e-05	0.00000000e+00
8.415          	1.96877590e-01	1.97401580e-04	2.72385680e-04	8.88774130e-05	0.00000000e+00
8.42           	1.52196300e-01	1.96243150e-04	2.70104030e-04	9.99133850e-05	0.00000000e+00
8.425          	8.28588870e-02	1.95084200e-04	2.67822410e-04	5.91180030e-05	0.00000000e+00
8.43           	2.14991780e-01	1.93924770e-04	2.65540880e-04	8.59787730e-05	0.00000000e+00
8.435          	1.03316480e-01	1.92764860e-04	2.63259470e-04	6.71106900e-05	0.00000000e+00
8.44           	1.67041720e-01	1.91604500e-04	2.60978230e-04	9.48854890e-05	0.00000000e+00
8.445          	1.59856470e-01	1.90443680e-04	2.58697190e-04	1.44353600e-04	0.00000000e+00
8.45           	1.41970040e-01	1.89282440e-04	2.56416400e-04	8.87984180e-05	0.00000000e+00
8.455          	1.35060980e-01	1.88120770e-04	2.54135900e-04	8.49825820e-05	0.00000000e+00
8.46           	2.87405690e-01	1.86958680e-04	2.51855730e-04	8.25047730e-05	0.00000000e+00
8.465          	1.04701190e-01	1.85796200e-04	2.49575930e-04	1.54919110e-04	0.00000000e+00
8.47           	1.19247780e-01	1.84633360e-04	2.47296550e-04	6.93497260e-05	0.00000000e+00
8.475          	2.97248710e-01	1.83470130e-04	2.45017610e-04	1.08013210e-04	0.00000000e+00
8.48           	6.66961710e-02	1.82306580e-04	2.42739170e-04	8.40056460e-05	0.00000000e+00
8.485          	2.73251570e-01	1.81142660e-04	2.40461270e-04	1.49830810e-04	0.00000000e+00
8.49           	1.36802900e-01	1.79978420e-04	2.38183940e-04	1.34524790e-04	0.00000000e+00
8.495          	8.25061770e-02	1.78813890e-04	2.35907230e-04	6.91662920e-05	0.00000000e+00
8.5            	4.44180500e-01	1.77649070e-04	2.33640190e-04	8.86421800e-05	0.00000000e+00
8.505          	1.16005040e-01	1.76483970e-04	2.31367820e-04	9.48726890e-05	0.00000000e+00
8.51           	1.12963800e-01	1.75318590e-04	2.29094160e-04	9.62584150e-05	0.00000000e+00
8.515          	7.00359250e-02	1.74152980e-04	2.26820600e-04	8.79196220e-05	0.00000000e+00
8.52           	1.44185950e-01	1.72987100e-04	2.24547620e-04	7.35582290e-05	0.00000000e+00
8.525          	9.23453070e-02	1.71821010e-04	2.22275420e-04	5.70741750e-05	0.00000000e+00
8.53           	1.42871620e-01	1.70654720e-04	2.20004100e-04	9.43206170e-05	0.00000000e+00
8.535          	2.59537880e-01	1.69488210e-04	2.17733700e-04	8.01514080e-05	0.00000000e+00
8.54           	1.67978430e-01	1.68321540e-04	2.15464270e-04	8.44039730e-05	0.00000000e+00
8.545          	4.85134540e-02	1.67154680e-04	2.13195860e-04	8.03309180e-05	0.00000000e+00
8.55           	1.04397450e-01	1.65987670e-04	2.10928500e-04	7.14991160e-05	0.00000000e+00
8.555          	8.97036460e-02	1.64820500e-04	2.08662240e-04	7.44932620e-05	0.00000000e+00
8.56           	3.19392570e-01	1.63653220e-04	2.06397120e-04	8.57212000e-05	0.00000000e+00
8.565          	1.66263540e-01	1.62485820e-04	2.04133170e-04	8.25569670e-05	0.00000000e+00
8.57           	3.65843340e-01	1.61318300e-04	2.01870440e-04	7.32719190e-05	0.00000000e+00
8.575          	1.20741040e-01	1.60150700e-04	1.99608960e-04	7.38913700e-05	0.00000000e+00
8.58           	1.34662750e-01	1.58983040e-04	1.97348780e-04	8.34034870e-05	0.00000000e+00
8.585          	2.37220570e-01	1.57815300e-04	1.95089930e-04	9.07961080e-05	0.00000000e+00
8.59           	2.42738830e-01	1.56647520e-04	1.92832460e-04	7.70832390e-05	0.00000000e+00
8.595          	1.08207340e-01	1.55479690e-04	1.90576400e-04	6.58026370e-05	0.00000000e+00
8.6            	1.21238800e-01	1.54311860e-04	1.88321790e-04	6.60939540e-05	0.00000000e+00
8.605          	9.59297440e-02	1.53144020e-04	1.86068670e-04	5.78356690e-05	0.00000000e+00
8.61           	1.02179920e-01	1.51976160e-04	1.83817080e-04	5.48794060e-05	0.00000000e+00
8.615          	1.60184170e-01	1.50808350e-04	1.81567060e-04	1.17420780e-04	0.00000000e+00
8.62           	3.33772590e-01	1.49640550e-04	1.79318640e-04	1.08417250e-04	0.00000000e+00
8.625          	8.65096150e-02	1.48472800e-04	1.77071870e-04	9.44964950e-05	0.00000000e+00
8.63           	2.75702770e-01	1.47305120e-04	1.74826790e-04	8.69170400e-05	0.00000000e+00
8.635          	2.82061080e-01	1.46137510e-04	1.72583420e-04	1.00008280e-04	0.00000000e+00
8.64           	1.66529030e-01	1.44969980e-04	1.70341820e-04	9.86887470e-05	0.00000000e+00
8.645          	9.74044360e-02	1.43802570e-04	1.68102010e-04	8.30344160e-05	0.00000000e+00
8.65           	2.21462240e-01	1.42635250e-04	1.65864040e-04	8.02031190e-05	0.00000000e+00
8.655          	1.78125850e-01	1.41468060e-04	1.63627950e-04	8.12193380e-05	0.00000000e+00
8.66           	7.08131950e-02	1.40301010e-04	1.61393760e-04	7.78225260e-05	0.00000000e+00
8.665          	1.21572060e-01	1.39134130e-04	1.59161530e-04	8.07719910e-05	0.00000000e+00
8.67           	2.73516530e-01	1.37967410e-04	1.56931280e-04	7.04654460e-05	0.00000000e+00
8.675          	1.35974890e-01	1.36800850e-04	1.54703050e-04	8.29883510e-05	0.00000000e+00
8.68           	1.50371460e-01	1.35634490e-04	1.52476890e-04	1.34859480e-04	0.00000000e+00
8.685          	2.03172710e-01	1.34468350e-04	1.50252820e-04	8.81592370e-05	0.00000000e+00
8.69           	7.24831070e-02	1.33302410e-04	1.48030890e-04	9.30426420e-05	0.00000000e+00
8.695          	7.96358980e-02	1.32136710e-04	1.45811130e-04	1.04825250e-04	0.00000000e+00
8.7            	1.75770700e-01	1.30971270e-04	1.43593580e-04	8.68073740e-05	0.00000000e+00
8.705          	9.68153710e-02	1.29806070e-04	1.41378280e-04	6.65111580e-05	0.00000000e+00
8.71           	7.19172750e-02	1.28641150e-04	1.39165260e-04	1.00507920e-04	0.00000000e+00
8.715          	1.15732950e-01	1.27476510e-04	1.36954560e-04	7.85620320e-05	0.00000000e+00
8.72           	2.38770600e-01	1.26312170e-04	1.34737190e-04	4.97807220e-05	0.00000000e+00
8.725          	2.65371890e-01	1.25148130e-04	1.32528260e-04	6.93749730e-05	0.00000000e+00
8.73           	6.62549670e-02	1.23984420e-04	1.30323780e-04	8.62593400e-05	0.00000000e+00
8.735          	3.10488080e-01	1.22821030e-04	1.28122450e-04	5.83818110e-05	0.00000000e+00
8.74           	2.63847950e-01	1.21658000e-04	1.25923850e-04	5.53660670e-05	0.00000000e+00
8.745          	6.99195060e-02	1.20495340e-04	1.23727870e-04	1.57077080e-04	0.00000000e+00
8.75           	6.83012380e-02	1.19333040e-04	1.21534480e-04	1.12143970e-04	0.00000000e+00
8.755          	1.16812640e-01	1.18171140e-04	1.19343720e-04	1.37555970e-04	0.00000000e+00
8.76           	2.53606380e-01	1.17009640e-04	1.17155600e-04	8.22110560e-05	0.00000000e+00
8.765          	9.33471190e-02	1.15848550e-04	1.14970160e-04	8.46718910e-05	0.00000000e+00
8.77           	1.66371770e-01	1.14687910e-04	1.12787430e-04	7.23791690e-05	0.00000000e+00
8.775          	1.02777210e-01	1.13527700e-04	1.10607450e-04	4.84318600e-05	0.00000000e+00
8.78           	1.42673340e-01	1.12367940e-04	1.08430260e-04	5.77408930e-05	0.00000000e+00
8.785          	2.03785360e-01	1.11208650e-04	1.06255880e-04	7.57150720e-05	0.00000000e+00
8.79           	8.38774380e-02	1.10049820e-04	1.04084350e-04	9.90874900e-05	0.00000000e+00
8.795          	2.28797470e-01	1.08891510e-04	1.01915710e-04	5.41935960e-05	0.00000000e+00
8.8            	1.74789960e-01	1.07733700e-04	9.97499860e-05	4.97124960e-05	0.00000000e+00
8.805          	3.18031570e-01	1.06576390e-04	9.75872160e-05	6.70831700e-05	0.00000000e+00
8.81           	4.72594620e-01	1.05419630e-04	9.54274330e-05	6.86814790e-05	0.00000000e+00
8.815          	9.03272380e-02	1.04263400e-04	9.32706700e-05	9.46154960e-05	0.00000000e+00
8.82           	2.33508430e-01	1.03107740e-04	9.11169610e-05	1.00321990e-04	0.00000000e+00
8.825          	2.34267970e-01	1.01952650e-04	8.89663390e-05	1.17064450e-04	0.00000000e+00
8.83           	1.11696200e-01	1.00798140e-04	8.68188380e-05	7.12520630e-05	0.00000000e+00
8.835          	1.10523330e-01	9.96442100e-05	8.46744910e-05	1.05981550e-04	0.00000000e+00
8.84           	1.36116510e-01	9.84909040e-05	8.25333310e-05	8.17976650e-05	0.00000000e+00
8.845          	1.56813070e-01	9.73382030e-05	8.03953910e-05	1.00009240e-04	0.00000000e+00
8.85           	7.71286100e-02	9.61861500e-05	7.82607030e-05	5.16836550e-05	0.00000000e+00
8.855          	8.21548240e-02	9.50347260e-05	7.61292990e-05	9.44723490e-05	0.00000000e+00
8.86           	1.51613740e-01	9.38839750e-05	7.40012130e-05	6.38543860e-05	0.00000000e+00
8.865          	1.11552750e-01	9.27338890e-05	7.18764770e-05	3.87888680e-05	0.00000000e+00
8.87           	3.04880700e-01	9.15844840e-05	6.97551230e-05	6.73607630e-05	0.00000000e+00
8.875          	2.45413030e-01	9.04357740e-05	6.76371820e-05	5.79020040e-05	0.00000000e+00
8.88           	7.00153510e-02	8.92877610e-05	6.55226870e-05	8.92415980e-05	0.00000000e+00
8.885          	1.78735480e-01	8.81404840e-05	6.34116700e-05	6.22607510e-05	0.00000000e+00
8.89           	1.44838480e-01	8.69939360e-05	6.13041610e-05	1.25001760e-04	0.00000000e+00
8.895          	2.80188190e-01	8.58481310e-05	5.92001920e-05	1.02949280e-04	0.00000000e+00
8.9            	2.00384240e-01	8.47030740e-05	5.70997950e-05	8.24195590e-05	0.00000000e+00
8.905          	1.23340740e-01	8.35587930e-05	5.50030010e-05	1.19475780e-04	0.00000000e+00
8.91           	1.34942830e-01	8.24153050e-05	5.29098400e-05	1.12587250e-04	0.00000000e+00
8.915          	1.74578360e-01	8.12725980e-05	5.08203440e-05	7.66387860e-05	0.00000000e+00
8.92           	2.05030680e-01	8.01307100e-05	4.87345420e-05	8.38456140e-05	0.00000000e+00
8.925          	2.40832270e-01	7.89896370e-05	4.66524670e-05	6.51040190e-05	0.00000000e+00
8.93           	1.39746870e-01	7.78493940e-05	4.45741460e-05	1.01287410e-04	0.00000000e+00
8.935          	1.99678410e-01	7.67099950e-05	4.24996120e-05	5.94013030e-05	0.00000000e+00
8.94           	8.96800530e-02	7.55714430e-05	4.04288940e-05	1.02501630e-04	0.00000000e+00
8.945          	2.74940090e-01	7.44337740e-05	3.83620220e-05	8.16826490e-05	0.00000000e+00
8.95           	1.71385460e-01	7.32969810e-05	3.62990260e-05	9.29570540e-05	0.00000000e+00
8.955          	6.30357810e-02	7.21610720e-05	3.42399340e-05	1.34520200e-04	0.00000000e+00
8.96           	8.97252110e-02	7.10260680e-05	3.21781790e-05	1.14661670e-04	0.00000000e+00
8.965          	8.80775470e-02	6.98919780e-05	3.01248180e-05	1.20639010e-04	0.00000000e+00
8.97           	1.29411710e-01	6.87588250e-05	2.80769340e-05	1.67126990e-04	0.00000000e+00
8.975          	4.08770650e-01	6.76266080e-05	2.60335710e-05	1.13943570e-04	0.00000000e+00
8.98           	1.22679070e-01	6.64953430e-05	2.39944300e-05	7.69807220e-05	0.00000000e+00
8.985          	4.46836500e-01	6.53650370e-05	2.19594260e-05	6.33597720e-05	0.00000000e+00
8.99           	3.14037000e-01	6.42357210e-05	1.99285530e-05	1.02606960e-04	0.00000000e+00
8.995          	9.53044230e-02	6.31073840e-05	1.79018250e-05	1.29483730e-04	0.00000000e+00
9              	1.42377590e-01	6.19800550e-05	1.58792660e-05	1.04490400e-04	0.00000000e+00
9.005          	1.61774560e-01	6.08537480e-05	1.38609020e-05	1.74776630e-04	0.00000000e+00
9.01           	1.60713160e-01	5.97284630e-05	1.18467590e-05	6.42503280e-05	0.00000000e+00
9.015          	2.44820600e-01	5.86042150e-05	9.83686550e-06	6.19693510e-05	0.00000000e+00
9.02           	1.30385910e-01	5.74810170e-05	7.83124810e-06	8.52515350e-05	0.00000000e+00
9.025          	1.83221150e-01	5.63588810e-05	5.82993380e-06	1.33267940e-04	0.00000000e+00
9.03           	1.72554300e-01	5.52378200e-05	3.83294960e-06	1.59811430e-04	0.00000000e+00
9.035          	4.25947360e-01	5.41178450e-05	1.84032220e-06	1.07893370e-04	0.00000000e+00
9.04           	7.27386420e-02	5.29989680e-05	7.54949710e-07	6.30638340e-05	0.00000000e+00
9.045          	3.95852290e-01	5.18814130e-05	2.62794780e-06	9.37486490e-05	0.00000000e+00
9.05           	1.91388880e-01	5.07649060e-05	4.57777340e-06	9.95697630e-05	0.00000000e+00
9.055          	1.26945320e-01	4.96494590e-05	6.52144770e-06	6.44066040e-05	0.00000000e+00
9.06           	2.58972590e-01	4.85351120e-05	8.45445550e-06	9.53391620e-05	0.00000000e+00
9.065          	1.11837230e-01	4.74219080e-05	1.03787340e-05	7.89688930e-05	0.00000000e+00
9.07           	2.45962840e-01	4.63098590e-05	1.22993880e-05	9.38029510e-05	0.00000000e+00
9.075          	4.91764900e-01	4.51989850e-05	1.42158510e-05	1.04917000e-04	0.00000000e+00
9.08           	2.71044960e-01	4.40893020e-05	1.61279130e-05	9.76606140e-05	0.00000000e+00
9.085          	3.66789920e-01	4.29808170e-05	1.80354850e-05	8.61636350e-05	0.00000000e+00
9.09           	3.21027360e-01	4.18735580e-05	1.99415160e-05	1.00737530e-04	0.00000000e+00
9.095          	3.73564520e-01	4.07675230e-05	2.18692910e-05	8.47225350e-05	0.00000000e+00
9.1            	9.73981430e-02	3.96627280e-05	2.37923880e-05	7.08880910e-05	0.00000000e+00
9.105          	8.01033890e-02	3.85591780e-05	2.57107860e-05	7.94538070e-05	0.00000000e+00
9.11           	1.41636440e-01	3.74569000e-05	2.76244640e-05	8.68435200e-05	0.00000000e+00
9.115          	1.40791910e-01	3.63558880e-05	2.95333970e-05	1.03612740e-04	0.00000000e+00
9.12           	2.21189030e-01	3.52561660e-05	3.14375630e-05	1.13476070e-04	0.00000000e+00
9.125          	1.62089550e-01	3.41577450e-05	3.33369370e-05	1.03802250e-04	0.00000000e+00
9.13           	1.10324510e-01	3.30606230e-05	3.52330370e-05	1.22806500e-04	0.00000000e+00
9.135          	1.71141410e-01	3.19648200e-05	3.71232680e-05	9.05994130e-05	0.00000000e+00
9.14           	2.31150030e-01	3.08703540e-05	3.90082930e-05	1.41449550e-04	0.00000000e+00
9.145          	1.82909280e-01	2.97772270e-05	4.08883170e-05	1.10821360e-04	0.00000000e+00
9.15           	1.27576560e-01	2.86854550e-05	4.27633960e-05	1.41158130e-04	0.00000000e+00
9.155          	8.52644010e-02	2.75950480e-05	4.46335310e-05	1.87860520e-04	0.00000000e+00
9.16           	3.02749510e-01	2.65060190e-05	4.64987090e-05	1.35558900e-04	0.00000000e+00
9.165          	1.21830560e-01	2.54183800e-05	4.83679150e-05	1.58008690e-04	0.00000000e+00
9.17           	1.70795940e-01	2.43321340e-05	5.02359510e-05	1.88404310e-04	0.00000000e+00
9.175          	1.38495290e-01	2.32473000e-05	5.20971330e-05	1.42590540e-04	0.00000000e+00
9.18           	2.63943290e-01	2.21638890e-05	5.39526410e-05	1.54180170e-04	0.00000000e+00
9.185          	2.37650030e-01	2.10819160e-05	5.58028560e-05	1.71223970e-04	0.00000000e+00
9.19           	2.43693530e-01	2.00013870e-05	5.76478930e-05	1.98120400e-04	0.00000000e+00
9.195          	1.33711780e-01	1.89223120e-05	5.94898080e-05	1.21017960e-04	0.00000000e+00
9.2            	1.37372980e-01	1.78447000e-05	6.13252030e-05	1.53518760e-04	0.00000000e+00
9.205          	1.35090440e-01	1.67685730e-05	6.31549610e-05	1.83151340e-04	0.00000000e+00
9.21           	1.49810220e-01	1.56939310e-05	6.49793660e-05	9.25279430e-05	0.00000000e+00
9.215          	1.27871650e-01	1.46245630e-05	6.64844160e-05	1.51447290e-04	0.00000000e+00
9.22           	4.47753140e-02	1.36163310e-05	6.81952390e-05	9.80717990e-05	0.00000000e+00
9.225          	1.32661800e-01	1.26342580e-05	6.99712570e-05	1.43311960e-04	0.00000000e+00
9.23           	1.46611130e-01	1.17422960e-05	7.17655520e-05	1.28495620e-04	0.00000000e+00
9.235          	1.55903820e-01	1.09242620e-05	7.35624750e-05	9.72096420e-05	0.00000000e+00
9.24           	2.22864730e-01	1.01856890e-05	7.53567570e-05	8.97108760e-05	0.00000000e+00
9.245          	1.43376660e-01	9.53026860e-06	7.71466310e-05	1.47037110e-04	0.00000000e+00
9.25           	1.15231100e-01	8.95577700e-06	7.89314860e-05	9.55907520e-05	0.00000000e+00
9.255          	3.84700830e-01	8.46310690e-06	8.07111050e-05	1.09402300e-04	0.00000000e+00
9.26           	8.37144830e-02	8.05287330e-06	8.24853980e-05	1.04078100e-04	0.00000000e+00
9.265          	3.04195580e-01	7.72553350e-06	8.42543210e-05	1.01320410e-04	0.00000000e+00
9.27           	1.23699050e-01	7.48510190e-06	8.60178440e-05	1.29024440e-04	0.00000000e+00
9.275          	1.29588600e-01	7.33259280e-06	8.77759440e-05	8.16686190e-05	0.00000000e+00
9.28           	1.63165470e-01	7.26187820e-06	8.95286010e-05	8.22702680e-05	0.00000000e+00
9.285          	1.53549800e-01	7.27208230e-06	9.12757830e-05	8.60384880e-05	0.00000000e+00
9.29           	2.27241160e-01	7.36205310e-06	9.30174990e-05	7.83619510e-05	0.00000000e+00
9.295          	1.12358180e-01	7.53051200e-06	9.47537070e-05	1.02830760e-04	0.00000000e+00
9.3            	1.40289020e-01	7.77566810e-06	9.64843810e-05	1.60758290e-04	0.00000000e+00
9.305          	1.79661040e-01	8.09591870e-06	9.82095210e-05	7.51309970e-05	0.00000000e+00
9.31           	1.23505750e-01	8.48899680e-06	9.99291180e-05	7.19482820e-05	0.00000000e+00
9.315          	1.60968890e-01	8.95567840e-06	1.01643120e-04	8.46042130e-05	0.00000000e+00
9.32           	1.17827390e-01	9.49295900e-06	1.03351550e-04	1.30708990e-04	0.00000000e+00
9.325          	1.86447800e-01	1.00954320e-05	1.05054360e-04	6.84383050e-05	0.00000000e+00
9.33           	1.07232690e-01	1.07601730e-05	1.06751540e-04	8.17561520e-05	0.00000000e+00
9.335          	2.08144470e-01	1.14837380e-05	1.08443070e-04	6.47900550e-05	0.00000000e+00
9.34           	4.56953030e-01	1.22624780e-05	1.10128930e-04	8.83711270e-05	0.00000000e+00
9.345          	9.71500070e-02	1.30921120e-05	1.11809130e-04	8.24184820e-05	0.00000000e+00
9.35           	1.03104300e-01	1.39750240e-05	1.13483620e-04	8.12514890e-05	0.00000000e+00
9.355          	3.56343810e-01	1.48986130e-05	1.15152430e-04	8.21549940e-05	0.00000000e+00
9.36           	1.35610360e-01	1.58579550e-05	1.16815490e-04	1.00295190e-04	0.00000000e+00
9.365          	8.38087650e-02	1.68510860e-05	1.18472810e-04	1.06664360e-04	0.00000000e+00
9.37           	3.83538550e-01	1.78644060e-05	1.20124380e-04	1.34250280e-04	0.00000000e+00
9.375          	8.12950630e-02	1.88773330e-05	1.21770170e-04	1.47299070e-04	0.00000000e+00
9.38           	1.31203860e-01	1.98896450e-05	1.23410170e-04	1.19380910e-04	0.00000000e+00
9.385          	1.29404790e-01	2.09030240e-05	1.25044380e-04	1.27606980e-04	0.00000000e+00
9.39           	1.80355250e-01	2.19145410e-05	1.26672770e-04	1.25684950e-04	0.00000000e+00
9.395          	3.22375930e-01	2.29241890e-05	1.28295350e-04	1.12217840e-04	0.00000000e+00
9.4            	1.83473810e-01	2.39319530e-05	1.29912070e-04	7.88276560e-05	0.00000000e+00
9.405          	8.44673720e-02	2.49378240e-05	1.31522910e-04	6.14188230e-05	0.00000000e+00
9.41           	1.38024080e-01	2.59417960e-05	1.33127910e-04	9.57200420e-05	0.00000000e+00
9.415          	1.02358980e-01	2.69438530e-05	1.34726990e-04	6.14167550e-05	0.00000000e+00
9.42           	1.19101850e-01	2.79439910e-05	1.36320200e-04	7.35559160e-05	0.00000000e+00
9.425          	9.91022810e-02	2.89421940e-05	1.37907470e-04	1.06143230e-04	0.00000000e+00
9.43           	8.76924040e-02	2.99384560e-05	1.39488830e-04	8.37926470e-05	0.00000000e+00
9.435          	2.25107240e-01	3.09327660e-05	1.41064240e-04	5.36474200e-05	0.00000000e+00
9.44           	1.72106180e-01	3.19251180e-05	1.42633730e-04	1.16680190e-04	0.00000000e+00
9.445          	3.01846880e-01	3.29154940e-05	1.44197210e-04	1.16746280e-04	0.00000000e+00
9.45           	1.17185240e-01	3.39042910e-05	1.45754750e-04	8.46707110e-05	0.00000000e+00
9.455          	3.00144100e-01	3.48923210e-05	1.47306290e-04	5.06248070e-05	0.00000000e+00
9.46           	1.78003200e-01	3.58783460e-05	1.48851830e-04	7.67963450e-05	0.00000000e+00
9.465          	1.33349320e-01	3.68623570e-05	1.50391350e-04	8.87431780e-05	0.00000000e+00
9.47           	1.37606630e-01	3.78443450e-05	1.51924840e-04	9.31202260e-05	0.00000000e+00
9.475          	1.68616010e-01	3.88242990e-05	1.53452300e-04	9.89738850e-05	0.00000000e+00
9.48           	6.31947050e-02	3.98022110e-05	1.54973710e-04	8.97701860e-05	0.00000000e+00
9.485          	2.20388200e-01	4.07780700e-05	1.56489060e-04	1.21290530e-04	0.00000000e+00
9.49           	1.20444660e-01	4.17518680e-05	1.57998340e-04	9.17460230e-05	0.00000000e+00
9.495          	1.20592680e-01	4.27235930e-05	1.59501540e-04	7.87816710e-05	0.00000000e+00
9.5            	1.10839070e-01	4.36932380e-05	1.60998640e-04	9.72122110e-05	0.00000000e+00
9.505          	1.69518800e-01	4.46607870e-05	1.62489630e-04	1.22317050e-04	0.00000000e+00
9.51           	1.47431280e-01	4.56262430e-05	1.63974530e-04	6.86832740e-05	0.00000000e+00
9.515          	2.04394920e-01	4.65895880e-05	1.65453300e-04	7.11210650e-05	0.00000000e+00
9.52           	4.01256440e-01	4.75508130e-05	1.66925940e-04	7.82682340e-05	0.00000000e+00
9.525          	2.31602550e-01	4.85099100e-05	1.68392430e-04	1.21579670e-04	0.00000000e+00
9.53           	1.15800280e-01	4.94668690e-05	1.69852770e-04	1.06272130e-04	0.00000000e+00
9.535          	1.00383430e-01	5.04216810e-05	1.71306950e-04	1.29306080e-04	0.00000000e+00
9.54           	1.42551680e-01	5.13743370e-05	1.72754960e-04	1.50176470e-04	0.00000000e+00
9.545          	1.01932300e-01	5.23248210e-05	1.74196770e-04	1.54413500e-04	0.00000000e+00
9.55           	2.12485490e-01	5.32731410e-05	1.75632420e-04	1.74138940e-04	0.00000000e+00
9.555          	9.22558580e-02	5.42194480e-05	1.77061860e-04	1.80182870e-04	0.00000000e+00
9.56           	1.78884540e-01	5.51635820e-05	1.78485100e-04	1.17948430e-04	0.00000000e+00
9.565          	3.04270300e-01	5.61055070e-05	1.79902090e-04	1.28679880e-04	0.00000000e+00
9.57           	1.46946480e-01	5.70452240e-05	1.81312880e-04	1.00977260e-04	0.00000000e+00
9.575          	1.26321890e-01	5.79827290e-05	1.82717460e-04	1.26198260e-04	0.00000000e+00
9.58           	1.27358390e-01	5.89180000e-05	1.84115790e-04	1.05997220e-04	0.00000000e+00
9.585          	3.29346130e-01	5.98510320e-05	1.85507870e-04	1.38647320e-04	0.00000000e+00
9.59           	4.71236670e-02	6.07818150e-05	1.86893690e-04	1.27498380e-04	0.00000000e+00
9.595          	1.69738720e-01	6.17103360e-05	1.88273220e-04	1.50077280e-04	0.00000000e+00
9.6            	8.93816050e-02	6.26366030e-05	1.89646530e-04	1.47323570e-04	0.00000000e+00
9.605          	5.10585240e-01	6.35605930e-05	1.91013550e-04	2.22564610e-04	0.00000000e+00
9.61           	3.00919370e-01	6.44822920e-05	1.92374250e-04	1.52407560e-04	0.00000000e+00
9.615          	2.48799180e-01	6.54017110e-05	1.93728700e-04	1.64223110e-04	0.00000000e+00
9.62           	4.96229160e-01	6.63188270e-05	1.95076850e-04	1.45097410e-04	0.00000000e+00
9.625          	1.24260330e-01	6.72336330e-05	1.96418680e-04	1.78233440e-04	0.00000000e+00
9.63           	3.84362170e-01	6.81461210e-05	1.97754210e-04	1.71070480e-04	0.00000000e+00
9.635          	7.02366400e-02	6.90562750e-05	1.99083390e-04	1.12466160e-04	0.00000000e+00
9.64           	1.36938810e-01	6.99641000e-05	2.00406260e-04	1.17714270e-04	0.00000000e+00
9.645          	1.08249170e-01	7.08695910e-05	2.01722840e-04	1.16120460e-04	0.00000000e+00
9.65           	1.01537870e-01	7.17727180e-05	2.03033050e-04	1.15924830e-04	0.00000000e+00
9.655          	1.90124470e-01	7.26734980e-05	2.04336950e-04	2.03061300e-04	0.00000000e+00
9.66           	3.24732940e-01	7.35719040e-05	2.05634490e-04	1.24532910e-04	0.00000000e+00
9.665          	1.08794550e-01	7.44679250e-05	2.06925660e-04	1.39988800e-04	0.00000000e+00
9.67           	1.58558400e-01	7.53615740e-05	2.08210510e-04	1.24140860e-04	0.00000000e+00
9.675          	1.56819180e-01	7.62528250e-05	2.09488980e-04	1.78531130e-04	0.00000000e+00
9.68           	1.07793000e-01	7.71416740e-05	2.10761090e-04	1.05582960e-04	0.00000000e+00
9.685          	2.41612000e-01	7.80281040e-05	2.12026800e-04	1.89722010e-04	0.00000000e+00
9.69           	1.26174530e-01	7.89121310e-05	2.13286180e-04	1.02776410e-04	0.00000000e+00
9.695          	2.92689590e-01	7.97937280e-05	2.14539170e-04	9.21888740e-05	0.00000000e+00
9.7            	6.42527480e-02	8.06728890e-05	2.15785780e-04	9.49167200e-05	0.00000000e+00
9.705          	8.26360540e-02	8.15496080e-05	2.17025990e-04	8.49130110e-05	0.00000000e+00
9.71           	1.14504630e-01	8.24238760e-05	2.18259820e-04	8.43693540e-05	0.00000000e+00
9.715          	3.72758320e-01	8.32956870e-05	2.19487250e-04	5.87212890e-05	0.00000000e+00
9.72           	1.18519490e-01	8.41650310e-05	2.20708280e-04	5.63463640e-05	0.00000000e+00
9.725          	1.67151670e-01	8.50319020e-05	2.21922910e-04	1.12800890e-04	0.00000000e+00
9.73           	1.42389700e-01	8.58962910e-05	2.23131140e-04	1.06956050e-04	0.00000000e+00
9.735          	1.09938290e-01	8.67581900e-05	2.24332960e-04	7.57776000e-05	0.00000000e+00
9.74           	1.77754910e-01	8.76175930e-05	2.25528370e-04	1.07597600e-04	0.00000000e+00
9.745          	1.48590760e-01	8.84744900e-05	2.26717360e-04	1.20282330e-04	0.00000000e+00
9.75           	3.74543160e-01	8.93288740e-05	2.27899950e-04	1.34912600e-04	0.00000000e+00
9.755          	2.35924900e-01	9.01807390e-05	2.29076110e-04	7.13393250e-05	0.00000000e+00
9.76           	2.24048860e-01	9.10300640e-05	2.30245820e-04	1.09330210e-04	0.00000000e+00
9.765          	1.54777230e-01	9.18768730e-05	2.31409160e-04	9.61051370e-05	0.00000000e+00
9.77           	1.26372070e-01	9.27211220e-05	2.32566030e-04	1.26661880e-04	0.00000000e+00
9.775          	1.32424070e-01	9.35628390e-05	2.33716530e-04	8.49560310e-05	0.00000000e+00
9.78           	3.36004590e-01	9.44019920e-05	2.34860580e-04	1.23265460e-04	0.00000000e+00
9.785          	1.61626800e-01	9.52385780e-05	2.35998190e-04	6.44364220e-05	0.00000000e+00
9.79           	1.70106430e-01	9.60725790e-05	2.37129340e-04	1.24449910e-04	0.00000000e+00
9.795          	2.72394070e-01	9.69040200e-05	2.38254110e-04	1.13538790e-04	0.00000000e+00
9.8            	2.65156160e-01	9.77328680e-05	2.39372430e-04	6.23117350e-05	0.00000000e+00
9.805          	7.90484900e-02	9.85591090e-05	2.40484280e-04	1.54587400e-04	0.00000000e+00
9.81           	2.56343860e-01	9.93827550e-05	2.41589710e-04	9.07630940e-05	0.00000000e+00
9.815          	1.01951310e-01	1.00203810e-04	2.42688750e-04	1.33064580e-04	0.00000000e+00
9.82           	9.06607550e-02	1.01022240e-04	2.43781330e-04	1.69605340e-04	0.00000000e+00
9.825          	1.42932910e-01	1.01838030e-04	2.44867430e-04	1.59334180e-04	0.00000000e+00
9.83           	8.69873450e-02	1.02651200e-04	2.45947110e-04	1.59694120e-04	0.00000000e+00
9.835          	1.13891250e-01	1.03461750e-04	2.47020400e-04	1.39264240e-04	0.00000000e+00
9.84           	9.41455760e-02	1.04269630e-04	2.48087200e-04	1.49036510e-04	0.00000000e+00
9.845          	2.81763300e-01	1.05074880e-04	2.49147570e-04	1.55263850e-04	0.00000000e+00
9.85           	2.71849680e-01	1.05877470e-04	2.50201540e-04	1.35287470e-04	0.00000000e+00
9.855          	2.90606680e-01	1.06677390e-04	2.51249030e-04	1.04995890e-04	0.00000000e+00
9.86           	1.79451000e-01	1.07474640e-04	2.52290090e-04	9.25160470e-05	0.00000000e+00
9.865          	2.18877410e-01	1.08269230e-04	2.53324750e-04	8.68789540e-05	0.00000000e+00
9.87           	9.10538400e-02	1.09061120e-04	2.54352960e-04	8.94500390e-05	0.00000000e+00
9.875          	2.23377770e-01	1.09850330e-04	2.55374730e-04	6.50809250e-05	0.00000000e+00
9.88           	9.08509130e-02	1.10636830e-04	2.56390060e-04	8.95930930e-05	0.00000000e+00
9.885          	3.09797700e-01	1.11420630e-04	2.57398960e-04	1.20798060e-04	0.00000000e+00
9.89           	4.36477280e-01	1.12201720e-04	2.58401430e-04	9.71269510e-05	0.00000000e+00
9.895          	1.96246930e-01	1.12980080e-04	2.59397430e-04	1.71145140e-04	0.00000000e+00
9.9            	3.92657990e-01	1.13755750e-04	2.60387060e-04	1.64262300e-04	0.00000000e+00
9.905          	7.68996850e-02	1.14528670e-04	2.61370250e-04	1.00533790e-04	0.00000000e+00
9.91           	1.46734990e-01	1.15298850e-04	2.62346980e-04	1.05634380e-04	0.00000000e+00
9.915          	3.42976730e-01	1.16066300e-04	2.63317340e-04	1.48325790e-04	0.00000000e+00
9.92           	1.47825890e-01	1.16831010e-04	2.64281260e-04	1.11460520e-04	0.00000000e+00
9.925          	1.53817480e-01	1.17592940e-04	2.65238730e-04	9.60346330e-05	0.00000000e+00
9.93           	1.59412870e-01	1.18352140e-04	2.66189840e-04	8.56527100e-05	0.00000000e+00
9.935          	1.73301890e-01	1.19108550e-04	2.67134480e-04	1.13762450e-04	0.00000000e+00
9.94           	3.35723620e-01	1.19862190e-04	2.68072730e-04	8.23585730e-05	0.00000000e+00
9.945          	1.29537660e-01	1.20613080e-04	2.69004610e-04	9.17377450e-05	0.00000000e+00
9.95           	2.08823620e-01	1.21361170e-04	2.69930070e-04	8.17955090e-05	0.00000000e+00
9.955          	1.28619400e-01	1.22106450e-04	2.70849080e-04	4.97407520e-05	0.00000000e+00
9.96           	1.96298800e-01	1.22848970e-04	2.71761750e-04	5.38630840e-05	0.00000000e+00
9.965          	9.90426650e-02	1.23588660e-04	2.72667970e-04	8.95429100e-05	0.00000000e+00
9.97           	2.76580960e-01	1.24325560e-04	2.73567860e-04	1.00654280e-04	0.00000000e+00
9.975          	1.47753350e-01	1.25059640e-04	2.74461300e-04	1.10991340e-04	0.00000000e+00
9.98           	1.10250680e-01	1.25790900e-04	2.75348370e-04	1.35018140e-04	0.00000000e+00
9.985          	1.41671100e-01	1.26519340e-04	2.76229070e-04	1.09278630e-04	0.00000000e+00
9.99           	3.50585300e-01	1.27244970e-04	2.77103430e-04	1.25984180e-04	0.00000000e+00
9.995          	1.33960600e-01	1.27967750e-04	2.77971390e-04	7.82383560e-05	0.00000000e+00
10             	1.91359200e-01	1.28687680e-04	2.78832930e-04	1.31635180e-04	0.00000000e+00
10.005         	4.88252560e-01	1.29404790e-04	2.79688180e-04	1.08535110e-04	0.00000000e+00
10.01          	1.00445310e-01	1.30119020e-04	2.80537000e-04	1.22008390e-04	0.00000000e+00
10.015         	2.16715200e-01	1.30830420e-04	2.81379520e-04	1.50038920e-04	0.00000000e+00
10.02          	3.99709840e-01	1.31538950e-04	2.82215680e-04	1.21943730e-04	0.00000000e+00
10.025         	1.51896230e-01	1.32244620e-04	2.83045480e-04	1.19096430e-04	0.00000000e+00
10.03          	4.03133870e-01	1.32947410e-04	2.83868930e-04	8.00157000e-05	0.00000000e+00
10.035         	1.32668610e-01	1.33647310e-04	2.84686000e-04	1.36215490e-04	0.00000000e+00
10.04          	1.33214750e-01	1.34344340e-04	2.85496770e-04	6.80251630e-05	0.00000000e+00
10.045         	1.18921460e-01	1.35038500e-04	2.86301260e-04	9.98817640e-05	0.00000000e+00
10.05          	1.29574110e-01	1.35729750e-04	2.87099360e-04	2.00822540e-04	0.00000000e+00
10.055         	2.55151770e-01	1.36418100e-04	2.87891170e-04	9.49961610e-05	0.00000000e+00
10.06          	1.44180390e-01	1.37103580e-04	2.88676710e-04	1.09182800e-04	0.00000000e+00
10.065         	4.51561980e-01	1.37786120e-04	2.89455870e-04	1.97557190e-04	0.00000000e+00
10.07          	1.32539690e-01	1.38465770e-04	2.90228760e-04	1.12613090e-04	0.00000000e+00
10.075         	1.22238390e-01	1.39142500e-04	2.90995350e-04	1.31018270e-04	0.00000000e+00
10.08          	1.78450240e-01	1.39816310e-04	2.91755660e-04	1.28564770e-04	0.00000000e+00
10.085         	1.22691060e-01	1.40487210e-04	2.92509730e-04	1.43488920e-04	0.00000000e+00
10.09          	1.25731680e-01	1.41155180e-04	2.93257490e-04	2.01574310e-04	0.00000000e+00
10.095         	2.05776930e-01	1.41820210e-04	2.93998980e-04	1.60506680e-04	0.00000000e+00
10.1           	6.45846530e-02	1.42482280e-04	2.94734150e-04	1.47319070e-04	0.00000000e+00
10.105         	3.62863700e-01	1.43141440e-04	2.95463130e-04	1.65495970e-04	0.00000000e+00
10.11          	3.15677900e-01	1.43797650e-04	2.96185850e-04	1.89310870e-04	0.00000000e+00
10.115         	6.71514830e-01	1.44450880e-04	2.96902270e-04	1.95800410e-04	0.00000000e+00
10.12          	9.60226330e-02	1.45101180e-04	2.97612470e-04	1.29765860e-04	0.00000000e+00
10.125         	1.71676530e-01	1.45748530e-04	2.98316500e-04	1.67793520e-04	0.00000000e+00
10.13          	1.67354340e-01	1.46392900e-04	2.99014230e-04	1.53919930e-04	0.00000000e+00
10.135         	9.11294250e-02	1.47034320e-04	2.99705810e-04	1.85427770e-04	0.00000000e+00
10.14          	1.50338230e-01	1.47672770e-04	3.00391160e-04	1.38950060e-04	0.00000000e+00
10.145         	1.80092210e-01	1.48308210e-04	3.01070250e-04	1.43192970e-04	0.00000000e+00
10.15          	1.25070830e-01	1.48940690e-04	3.01743170e-04	1.01502270e-04	0.00000000e+00
10.155         	8.90471010e-02	1.49570200e-04	3.02409910e-04	1.39257870e-04	0.00000000e+00
10.16          	2.06996910e-01	1.50196720e-04	3.03070480e-04	1.65093530e-04	0.00000000e+00
10.165         	1.05460580e-01	1.50820260e-04	3.03724910e-04	1.32974640e-04	0.00000000e+00
10.17          	9.42561810e-02	1.51440810e-04	3.04373160e-04	1.41403570e-04	0.00000000e+00
10.175         	1.72110570e-01	1.52058330e-04	3.05015180e-04	1.73000670e-04	0.00000000e+00
10.18          	1.22423250e-01	1.52672880e-04	3.05651130e-04	1.35792620e-04	0.00000000e+00
10.185         	1.04417730e-01	1.53284420e-04	3.06280920e-04	1.44837480e-04	0.00000000e+00
10.19          	1.26896320e-01	1.53892950e-04	3.06904560e-04	1.62726060e-04	0.00000000e+00
10.195         	1.93941870e-01	1.54498440e-04	3.07522030e-04	1.61558680e-04	0.00000000e+00
10.2           	1.99776400e-01	1.55100950e-04	3.08133460e-04	1.27164150e-04	0.00000000e+00
10.205         	1.60933470e-01	1.55700420e-04	3.08738710e-04	1.35578550e-04	0.00000000e+00
10.21          	1.19839600e-01	1.56296880e-04	3.09337890e-04	1.39055860e-04	0.00000000e+00
10.215         	7.27088930e-02	1.56890310e-04	3.09930980e-04	1.15502150e-04	0.00000000e+00
10.22          	1.62569570e-01	1.57480720e-04	3.10517980e-04	1.30439390e-04	0.00000000e+00
10.225         	1.69017940e-01	1.58068100e-04	3.11098920e-04	1.33389380e-04	0.00000000e+00
10.23          	1.70420300e-01	1.58652440e-04	3.11673790e-04	1.89724200e-04	0.00000000e+00
10.235         	2.57176650e-01	1.59233780e-04	3.12242640e-04	1.54083850e-04	0.00000000e+00
10.24          	2.53163140e-01	1.59812030e-04	3.12805370e-04	1.78911680e-04	0.00000000e+00
10.245         	1.56833220e-01	1.60387250e-04	3.13362080e-04	1.30344880e-04	0.00000000e+00
10.25          	9.00300940e-02	1.60959450e-04	3.13912820e-04	1.45651030e-04	0.00000000e+00
10.255         	3.88668430e-01	1.61528570e-04	3.14457460e-04	1.14206200e-04	0.00000000e+00
10.26          	1.59197780e-01	1.62094650e-04	3.14996100e-04	1.53826520e-04	0.00000000e+00
10.265         	1.65148270e-01	1.62657680e-04	3.15528760e-04	1.98108280e-04	0.00000000e+00
10.27          	1.25460680e-01	1.63217650e-04	3.16055420e-04	2.24951780e-04	0.00000000e+00
10.275         	2.24072660e-01	1.63774560e-04	3.16576090e-04	2.42572980e-04	0.00000000e+00
10.28          	4.51953760e-01	1.64328440e-04	3.17090850e-04	1.59222570e-04	0.00000000e+00
10.285         	2.40967490e-01	1.64879210e-04	3.17599560e-04	2.30912360e-04	0.00000000e+00
10.29          	4.91730100e-01	1.65426950e-04	3.18102380e-04	1.78567890e-04	0.00000000e+00
10.295         	1.92695910e-01	1.65971610e-04	3.18599230e-04	1.59309480e-04	0.00000000e+00
10.3           	2.71530270e-01	1.66513190e-04	3.19090140e-04	1.47229710e-04	0.00000000e+00
10.305         	1.20902230e-01	1.67051680e-04	3.19575080e-04	1.88628650e-04	0.00000000e+00
10.31          	3.71813750e-01	1.67587110e-04	3.20054130e-04	1.54009190e-04	0.00000000e+00
10.315         	1.12492910e-01	1.68119460e-04	3.20527290e-04	1.97616680e-04	0.00000000e+00
10.32          	4.63481240e-01	1.68648760e-04	3.20994600e-04	1.79808040e-04	0.00000000e+00
10.325         	1.34718420e-01	1.69174940e-04	3.21455950e-04	1.46126350e-04	0.00000000e+00
10.33          	1.68043390e-01	1.69698040e-04	3.21911450e-04	1.46211610e-04	0.00000000e+00
10.335         	1.47794620e-01	1.70218060e-04	3.22361100e-04	1.64661110e-04	0.00000000e+00
10.34          	1.45097010e-01	1.70735000e-04	3.22804890e-04	1.74072810e-04	0.00000000e+00
10.345         	1.36564180e-01	1.71248850e-04	3.23242850e-04	1.80793590e-04	0.00000000e+00
10.35          	2.17180510e-01	1.71759630e-04	3.23675020e-04	2.21846830e-04	0.00000000e+00
10.355         	2.40012520e-01	1.72267300e-04	3.24101340e-04	1.64486940e-04	0.00000000e+00
10.36          	2.22047370e-01	1.72771840e-04	3.24521790e-04	2.21340870e-04	0.00000000e+00
10.365         	1.70462580e-01	1.73273310e-04	3.24936470e-04	1.79216870e-04	0.00000000e+00
10.37          	1.78704130e-01	1.73771700e-04	3.25345420e-04	1.88892300e-04	0.00000000e+00
10.375         	3.69404380e-01	1.74266960e-04	3.25748510e-04	1.63133270e-04	0.00000000e+00
10.38          	1.12462440e-01	1.74759150e-04	3.26145910e-04	1.76381690e-04	0.00000000e+00
10.385         	1.58824910e-01	1.75248200e-04	3.26537490e-04	1.75107020e-04	0.00000000e+00
10.39          	1.64149310e-01	1.75734160e-04	3.26923340e-04	2.04031590e-04	0.00000000e+00
10.395         	1.47265890e-01	1.76217040e-04	3.27303520e-04	2.03834180e-04	0.00000000e+00
10.4           	2.22493380e-01	1.76696800e-04	3.27677950e-04	1.52928310e-04	0.00000000e+00
10.405         	7.00358650e-02	1.77173430e-04	3.28046610e-04	1.49257440e-04	0.00000000e+00
10.41          	1.07376640e-01	1.77646960e-04	3.28409600e-04	2.00609390e-04	0.00000000e+00
10.415         	1.15217620e-01	1.78117410e-04	3.28766970e-04	1.43513360e-04	0.00000000e+00
10.42          	1.73271520e-01	1.78584730e-04	3.29118630e-04	1.61918310e-04	0.00000000e+00
10.425         	2.90652000e-01	1.79048940e-04	3.29464620e-04	1.31014740e-04	0.00000000e+00
10.43          	1.20085840e-01	1.79510000e-04	3.29804910e-04	1.30559470e-04	0.00000000e+00
10.435         	9.17185890e-02	1.79967970e-04	3.30139590e-04	1.11130050e-04	0.00000000e+00
10.44          	9.92585460e-02	1.80422860e-04	3.30468700e-04	9.87403470e-05	0.00000000e+00
10.445         	1.11747010e-01	1.80874580e-04	3.30792120e-04	1.50570080e-04	0.00000000e+00
10.45          	5.27110130e-02	1.81323210e-04	3.31109950e-04	1.28256070e-04	0.00000000e+00
10.455         	1.51193450e-01	1.81768740e-04	3.31422260e-04	6.82000320e-05	0.00000000e+00
10.46          	2.00200660e-01	1.82211150e-04	3.31728950e-04	1.80396010e-04	0.00000000e+00
10.465         	1.71791990e-01	1.82650430e-04	3.32030070e-04	1.26584800e-04	0.00000000e+00
10.47          	1.24999120e-01	1.83086560e-04	3.32325580e-04	9.96713130e-05	0.00000000e+00
10.475         	1.08374850e-01	1.83519610e-04	3.32615630e-04	8.14283870e-05	0.00000000e+00
10.48          	1.06452070e-01	1.83949510e-04	3.32900070e-04	1.31482770e-04	0.00000000e+00
10.485         	1.54319000e-01	1.84376330e-04	3.33179080e-04	1.12409480e-04	0.00000000e+00
10.49          	2.27467450e-01	1.84800010e-04	3.33452550e-04	1.54340070e-04	0.00000000e+00
10.495         	1.43255900e-01	1.85220540e-04	3.33720470e-04	1.00531260e-04	0.00000000e+00
10.5           	3.75376530e-01	1.85637990e-04	3.33982990e-04	2.16147500e-04	0.00000000e+00
10.505         	9.02408510e-02	1.86052310e-04	3.34240030e-04	8.98837210e-05	0.00000000e+00
10.51          	1.55356770e-01	1.86463510e-04	3.34491600e-04	1.19275140e-04	0.00000000e+00
10.515         	2.00845290e-01	1.86871580e-04	3.34737720e-04	1.61271470e-04	0.00000000e+00
10.52          	2.05694110e-01	1.87276530e-04	3.34978420e-04	1.48404210e-04	0.00000000e+00
10.525         	3.16881280e-01	1.87678330e-04	3.35213640e-04	1.80043430e-04	0.00000000e+00
10.53          	2.33552510e-01	1.88077050e-04	3.35443550e-04	1.23004110e-04	0.00000000e+00
10.535         	2.02034120e-01	1.88472640e-04	3.35668050e-04	1.06466630e-04	0.00000000e+00
10.54          	1.62618940e-01	1.88865080e-04	3.35887100e-04	1.32965010e-04	0.00000000e+00
10.545         	9.48769200e-02	1.89254410e-04	3.36100830e-04	2.02847450e-04	0.00000000e+00
10.55          	3.88213530e-01	1.89640660e-04	3.36309260e-04	1.86709540e-04	0.00000000e+00
10.555         	4.14322860e-01	1.90023760e-04	3.36512330e-04	1.82542040e-04	0.00000000e+00
10.56          	2.73932930e-01	1.90403720e-04	3.36710000e-04	1.78979870e-04	0.00000000e+00
10.565         	1.45175590e-01	1.90780570e-04	3.36902400e-04	1.59834400e-04	0.00000000e+00
10.57          	1.05194900e-01	1.91154340e-04	3.37089560e-04	2.32339790e-04	0.00000000e+00
10.575         	8.73015520e-02	1.91524970e-04	3.37271400e-04	2.53842770e-04	0.00000000e+00
10.58          	7.73378040e-02	1.91892450e-04	3.37447910e-04	1.50273240e-04	0.00000000e+00
10.585         	1.93080350e-01	1.92256860e-04	3.37619240e-04	2.35364190e-04	0.00000000e+00
10.59          	1.02245860e-01	1.92618110e-04	3.37785250e-04	1.90880000e-04	0.00000000e+00
10.595         	8.30797850e-02	1.92976280e-04	3.37946100e-04	1.69996780e-04	0.00000000e+00
10.6           	1.49985060e-01	1.93331300e-04	3.38101660e-04	1.86101990e-04	0.00000000e+00
10.605         	1.02809900e-01	1.93683220e-04	3.38252040e-04	2.06064510e-04	0.00000000e+00
10.61          	2.21196870e-01	1.94032060e-04	3.38397290e-04	1.58383930e-04	0.00000000e+00
10.615         	1.82797730e-01	1.94377760e-04	3.38537330e-04	9.94271530e-05	0.00000000e+00
10.62          	1.88273080e-01	1.94720330e-04	3.38672140e-04	1.88021730e-04	0.00000000e+00
10.625         	1.56869220e-01	1.95059790e-04	3.38801830e-04	1.81037630e-04	0.00000000e+00
10.63          	2.58448210e-01	1.95396190e-04	3.38926450e-04	1.57389950e-04	0.00000000e+00
10.635         	1.20520930e-01	1.95729430e-04	3.39045860e-04	8.37405450e-05	0.00000000e+00
10.64          	1.43801840e-01	1.96059600e-04	3.39160250e-04	7.69267040e-05	0.00000000e+00
10.645         	1.19414480e-01	1.96386620e-04	3.39269450e-04	8.93834340e-05	0.00000000e+00
10.65          	1.97062960e-01	1.96710560e-04	3.39373600e-04	1.16300600e-04	0.00000000e+00
10.655         	1.19907600e-01	1.97031420e-04	3.39472740e-04	1.35986450e-04	0.00000000e+00
10.66          	1.54920620e-01	1.97349140e-04	3.39566750e-04	8.63938950e-05	0.00000000e+00
10.665         	1.43992770e-01	1.97663800e-04	3.39655790e-04	1.75469820e-04	0.00000000e+00
10.67          	2.10647360e-01	1.97975310e-04	3.39739730e-04	1.59370660e-04	0.00000000e+00
10.675         	1.76937620e-01	1.98283740e-04	3.39818680e-04	1.23321660e-04	0.00000000e+00
10.68          	1.13835650e-01	1.98589110e-04	3.39892690e-04	6.57577510e-05	0.00000000e+00
10.685         	1.81359550e-01	1.98891370e-04	3.39961700e-04	1.76470860e-04	0.00000000e+00
10.69          	1.00179230e-01	1.99190500e-04	3.40025660e-04	9.25757530e-05	0.00000000e+00
10.695         	1.15349360e-01	1.99486580e-04	3.40084760e-04	1.13814510e-04	0.00000000e+00
10.7           	8.28850900e-02	1.99779560e-04	3.40138890e-04	1.48422590e-04	0.00000000e+00
10.705         	7.12595840e-02	2.00069430e-04	3.40188040e-04	1.33090820e-04	0.00000000e+00
10.71          	1.16997300e-01	2.00356220e-04	3.40232300e-04	1.16073000e-04	0.00000000e+00
10.715         	1.02421470e-01	2.00639960e-04	3.40271740e-04	1.09207980e-04	0.00000000e+00
10.72          	2.53229630e-01	2.00920580e-04	3.40306200e-04	8.26906990e-05	0.00000000e+00
10.725         	1.49316840e-01	2.01198130e-04	3.40335820e-04	1.53212890e-04	0.00000000e+00
10.73          	1.14070120e-01	2.01472610e-04	3.40360590e-04	1.31991060e-04	0.00000000e+00
10.735         	1.88423950e-01	2.01744010e-04	3.40380530e-04	1.64735460e-04	0.00000000e+00
10.74          	3.05105560e-01	2.02012340e-04	3.40395640e-04	1.80620330e-04	0.00000000e+00
10.745         	8.28562500e-02	2.02277600e-04	3.40405940e-04	2.42543850e-04	0.00000000e+00
10.75          	1.37695200e-01	2.02539820e-04	3.40411500e-04	2.18926870e-04	0.00000000e+00
10.755         	1.17543570e-01	2.02798920e-04	3.40412190e-04	2.26743170e-04	0.00000000e+00
10.76          	1.88139790e-01	2.03054970e-04	3.40408130e-04	1.46098080e-04	0.00000000e+00
10.765         	1.51462130e-01	2.03308000e-04	3.40399380e-04	2.52016640e-04	0.00000000e+00
10.77          	1.42524760e-01	2.03557920e-04	3.40385810e-04	2.21304680e-04	0.00000000e+00
10.775         	4.68151070e-01	2.03804790e-04	3.40367540e-04	1.72051580e-04	0.00000000e+00
10.78          	3.60937060e-01	2.04048640e-04	3.40344620e-04	1.97071680e-04	0.00000000e+00
10.785         	2.09455700e-01	2.04289400e-04	3.40316930e-04	1.19525550e-04	0.00000000e+00
10.79          	1.62718730e-01	2.04527110e-04	3.40284570e-04	1.48055380e-04	0.00000000e+00
10.795         	1.62521010e-01	2.04761820e-04	3.40247620e-04	9.56020940e-05	0.00000000e+00
10.8           	1.00998990e-01	2.04993430e-04	3.40205930e-04	1.10395120e-04	0.00000000e+00
10.805         	1.47903480e-01	2.05222050e-04	3.40159680e-04	1.96047550e-04	0.00000000e+00
10.81          	2.17753690e-01	2.05447580e-04	3.40108730e-04	1.48327240e-04	0.00000000e+00
10.815         	1.68886420e-01	2.05670090e-04	3.40053200e-04	2.47103180e-04	0.00000000e+00
10.82          	1.22194960e-01	2.05889570e-04	3.39993090e-04	1.56034340e-04	0.00000000e+00
10.825         	1.34502740e-01	2.06106020e-04	3.39928410e-04	1.20321830e-04	0.00000000e+00
10.83          	1.15593080e-01	2.06319480e-04	3.39859220e-04	1.35998660e-04	0.00000000e+00
10.835         	5.93494910e-02	2.06529870e-04	3.39785400e-04	1.57801190e-04	0.00000000e+00
10.84          	2.98399350e-01	2.06737240e-04	3.39707070e-04	1.96333480e-04	0.00000000e+00
10.845         	1.32155040e-01	2.06941610e-04	3.39624230e-04	1.54944290e-04	0.00000000e+00
10.85          	1.31294900e-01	2.07142960e-04	3.39536890e-04	1.85449570e-04	0.00000000e+00
10.855         	8.95130660e-02	2.07341290e-04	3.39445070e-04	1.39112520e-04	0.00000000e+00
10.86          	1.34038360e-01	2.07536660e-04	3.39348840e-04	1.53706410e-04	0.00000000e+00
10.865         	4.37045950e-01	2.07728990e-04	3.39248110e-04	1.26855050e-04	0.00000000e+00
10.87          	1.75957510e-01	2.07918320e-04	3.39142930e-04	1.38640780e-04	0.00000000e+00
10.875         	1.50601600e-01	2.08104650e-04	3.39033320e-04	1.62534620e-04	0.00000000e+00
10.88          	1.81504990e-01	2.08287950e-04	3.38919240e-04	1.97022220e-04	0.00000000e+00
10.885         	9.85747300e-02	2.08468280e-04	3.38800800e-04	1.81310290e-04	0.00000000e+00
10.89          	1.85232720e-01	2.08645660e-04	3.38678050e-04	1.64178730e-04	0.00000000e+00
10.895         	8.29317750e-02	2.08820040e-04	3.38550900e-04	2.35626800e-04	0.00000000e+00
10.9           	4.47571220e-01	2.08991400e-04	3.38419340e-04	1.40500510e-04	0.00000000e+00
10.905         	8.00329210e-02	2.09159830e-04	3.38283530e-04	2.01198950e-04	0.00000000e+00
10.91          	1.38503470e-01	2.09325270e-04	3.38143370e-04	1.96337310e-04	0.00000000e+00
10.915         	4.02523680e-01	2.09487710e-04	3.37998850e-04	1.55004170e-04	0.00000000e+00
10.92          	1.75820070e-01	2.09647230e-04	3.37850120e-04	1.01767840e-04	0.00000000e+00
10.925         	1.36316090e-01	2.09803780e-04	3.37697100e-04	1.67768390e-04	0.00000000e+00
10.93          	6.46391740e-02	2.09957330e-04	3.37539750e-04	1.38914140e-04	0.00000000e+00
10.935         	1.25064080e-01	2.10107940e-04	3.37378200e-04	9.96274340e-05	0.00000000e+00
10.94          	2.02207950e-01	2.10255650e-04	3.37212480e-04	1.13800480e-04	0.00000000e+00
10.945         	9.64680090e-02	2.10400380e-04	3.37042510e-04	2.36520580e-04	0.00000000e+00
10.95          	9.29466040e-02	2.10542140e-04	3.36868280e-04	2.27266990e-04	0.00000000e+00
10.955         	1.67697870e-01	2.10680980e-04	3.36689910e-04	1.25749280e-04	0.00000000e+00
10.96          	1.41807030e-01	2.10816920e-04	3.36507430e-04	8.56287820e-05	0.00000000e+00
10.965         	8.87590440e-02	2.10949880e-04	3.36320710e-04	7.39699880e-05	0.00000000e+00
10.97          	4.37296960e-01	2.11079960e-04	3.36129930e-04	1.04936100e-04	0.00000000e+00
10.975         	4.19776470e-01	2.11207100e-04	3.35935000e-04	1.49324010e-04	0.00000000e+00
10.98          	3.11544100e-01	2.11331310e-04	3.35735960e-04	9.83665600e-05	0.00000000e+00
10.985         	8.65357970e-02	2.11452590e-04	3.35532770e-04	9.95011790e-05	0.00000000e+00
10.99          	1.76213740e-01	2.11571000e-04	3.35325600e-04	1.55044960e-04	0.00000000e+00
10.995         	2.59142920e-01	2.11686490e-04	3.35114340e-04	1.22977710e-04	0.00000000e+00
11             	3.30241680e-01	2.11799080e-04	3.34899020e-04	1.02422810e-04	0.00000000e+00
11.005         	1.49054580e-01	2.11908770e-04	3.34679680e-04	1.18419630e-04	0.00000000e+00
11.01          	2.29343980e-01	2.12015570e-04	3.34456320e-04	8.16484680e-05	0.00000000e+00
11.015         	1.57702260e-01	2.12119480e-04	3.34228960e-04	9.36926720e-05	0.00000000e+00
11.02          	1.75493310e-01	2.12220480e-04	3.33997560e-04	1.13266500e-04	0.00000000e+00
11.025         	1.76363140e-01	2.12318620e-04	3.33762230e-04	9.40488850e-05	0.00000000e+00
11.03          	1.27171120e-01	2.12413900e-04	3.33522960e-04	8.26168330e-05	0.00000000e+00
11.035         	2.56539170e-01	2.12506300e-04	3.33279760e-04	9.29619840e-05	0.00000000e+00
11.04          	1.59089070e-01	2.12595850e-04	3.33032630e-04	1.02257370e-04	0.00000000e+00
11.045         	8.76040390e-02	2.12682530e-04	3.32781600e-04	1.16217670e-04	0.00000000e+00
11.05          	1.23780320e-01	2.12766390e-04	3.32526740e-04	1.21459040e-04	0.00000000e+00
11.055         	1.67117210e-01	2.12847350e-04	3.32267910e-04	8.62719110e-05	0.00000000e+00
11.06          	2.54843040e-01	2.12925480e-04	3.32005240e-04	8.41427170e-05	0.00000000e+00
11.065         	1.11553260e-01	2.13000810e-04	3.31738780e-04	2.10627380e-04	0.00000000e+00
11.07          	1.68728020e-01	2.13073250e-04	3.31468420e-04	1.11918610e-04	0.00000000e+00
11.075         	1.33436330e-01	2.13142900e-04	3.31194310e-04	8.78812860e-05	0.00000000e+00
11.08          	1.51566670e-01	2.13209690e-04	3.30916330e-04	1.09560550e-04	0.00000000e+00
11.085         	2.86835250e-01	2.13273700e-04	3.30634640e-04	7.72730050e-05	0.00000000e+00
11.09          	1.45125880e-01	2.13334840e-04	3.30349100e-04	9.87423300e-05	0.00000000e+00
11.095         	1.41520210e-01	2.13393190e-04	3.30059840e-04	1.07312350e-04	0.00000000e+00
11.1           	5.93928960e-02	2.13448780e-04	3.29766910e-04	1.09708040e-04	0.00000000e+00
11.105         	9.43081170e-02	2.13501510e-04	3.29470160e-04	1.13897470e-04	0.00000000e+00
11.11          	4.23394330e-01	2.13551470e-04	3.29169740e-04	7.46020930e-05	0.00000000e+00
11.115         	1.35721190e-01	2.13598640e-04	3.28865630e-04	8.82536070e-05	0.00000000e+00
11.12          	2.00179430e-01	2.13643030e-04	3.28557850e-04	8.69300860e-05	0.00000000e+00
11.125         	2.87538800e-01	2.13684640e-04	3.28246410e-04	9.90640850e-05	0.00000000e+00
11.13          	1.93503680e-01	2.13723510e-04	3.27931370e-04	1.02221360e-04	0.00000000e+00
11.135         	1.08587960e-01	2.13759550e-04	3.27612620e-04	1.48057440e-04	0.00000000e+00
11.14          	2.17941550e-01	2.13792850e-04	3.27290290e-04	1.02726290e-04	0.00000000e+00
11.145         	1.11793560e-01	2.13823430e-04	3.26964410e-04	1.30291380e-04	0.00000000e+00
11.15          	3.62668140e-01	2.13851210e-04	3.26634860e-04	7.20024510e-05	0.00000000e+00
11.155         	7.82151040e-02	2.13876250e-04	3.26301770e-04	7.62635690e-05	0.00000000e+00
11.16          	1.61320940e-01	2.13898560e-04	3.25965140e-04	1.26636950e-04	0.00000000e+00
11.165         	1.33420990e-01	2.13918140e-04	3.25624970e-04	1.78971970e-04	0.00000000e+00
11.17          	1.70148090e-01	2.13934980e-04	3.25281280e-04	1.47762000e-04	0.00000000e+00
11.175         	1.09353790e-01	2.13949110e-04	3.24934090e-04	8.34926450e-05	0.00000000e+00
11.18          	4.62667160e-02	2.13960510e-04	3.24583400e-04	1.08581270e-04	0.00000000e+00
11.185         	1.17734500e-01	2.13969240e-04	3.24229290e-04	1.34516050e-04	0.00000000e+00
11.19          	1.35668080e-01	2.13975230e-04	3.23871690e-04	1.18845850e-04	0.00000000e+00
11.195         	1.21786420e-01	2.13978520e-04	3.23510630e-04	1.49929930e-04	0.00000000e+00
11.2           	1.60001930e-01	2.13979120e-04	3.23146130e-04	1.34317550e-04	0.00000000e+00
11.205         	1.31121430e-01	2.13977020e-04	3.22778220e-04	1.08587660e-04	0.00000000e+00
11.21          	1.58258670e-01	2.13972210e-04	3.22406860e-04	9.84569830e-05	0.00000000e+00
11.215         	4.57318960e-01	2.13964740e-04	3.22032150e-04	6.90405030e-05	0.00000000e+00
11.22          	1.17226160e-01	2.13954630e-04	3.21654140e-04	1.26724960e-04	0.00000000e+00
11.225         	1.16312390e-01	2.13941820e-04	3.21272690e-04	1.19566640e-04	0.00000000e+00
11.23          	1.66301720e-01	2.13926380e-04	3.20887980e-04	1.08898270e-04	0.00000000e+00
11.235         	9.48877890e-02	2.13908280e-04	3.20499920e-04	9.08749000e-05	0.00000000e+00
11.24          	1.62259650e-01	2.13887500e-04	3.20108490e-04	1.41519490e-04	0.00000000e+00
11.245         	1.45573410e-01	2.13864090e-04	3.19713810e-04	6.90450220e-05	0.00000000e+00
11.25          	2.53390660e-01	2.13838050e-04	3.19315850e-04	8.34142050e-05	0.00000000e+00
11.255         	1.09212520e-01	2.13809390e-04	3.18914640e-04	1.20607730e-04	0.00000000e+00
11.26          	9.78204140e-02	2.13778110e-04	3.18510190e-04	1.88476060e-04	0.00000000e+00
11.265         	1.73584980e-01	2.13744200e-04	3.18102500e-04	1.04089510e-04	0.00000000e+00
11.27          	1.79614140e-01	2.13707720e-04	3.17691650e-04	9.77942360e-05	0.00000000e+00
11.275         	2.42448440e-01	2.13668590e-04	3.17277520e-04	8.27793980e-05	0.00000000e+00
11.28          	1.65068590e-01	2.13626900e-04	3.16860270e-04	7.94577640e-05	0.00000000e+00
11.285         	3.08201290e-01	2.13582570e-04	3.16439780e-04	7.36434740e-05	0.00000000e+00
11.29          	7.67339800e-02	2.13535700e-04	3.16016210e-04	1.35335790e-04	0.00000000e+00
11.295         	2.66214550e-01	2.13486240e-04	3.15589470e-04	7.26660270e-05	0.00000000e+00
11.3           	9.84042970e-02	2.13434160e-04	3.15159550e-04	1.05911890e-04	0.00000000e+00
11.305         	1.33627750e-01	2.13379550e-04	3.14726550e-04	1.05539620e-04	0.00000000e+00
11.31          	2.47206870e-01	2.13322370e-04	3.14290470e-04	6.62106690e-05	0.00000000e+00
11.315         	4.18589390e-01	2.13262650e-04	3.13851320e-04	1.33202270e-04	0.00000000e+00
11.32          	1.15360180e-01	2.13200410e-04	3.13409150e-04	1.19057080e-04	0.00000000e+00
11.325         	4.22591610e-01	2.13135580e-04	3.12963850e-04	8.98398850e-05	0.00000000e+00
11.33          	1.58883220e-01	2.13068230e-04	3.12515540e-04	7.86217460e-05	0.00000000e+00
11.335         	1.76535210e-01	2.12998390e-04	3.12064270e-04	9.60733730e-05	0.00000000e+00
11.34          	1.93643880e-01	2.12926010e-04	3.11609960e-04	1.46230790e-04	0.00000000e+00
11.345         	2.01760130e-01	2.12851110e-04	3.11152660e-04	2.16700760e-04	0.00000000e+00
11.35          	1.27904080e-01	2.12773700e-04	3.10692380e-04	1.28196890e-04	0.00000000e+00
11.355         	9.39688070e-02	2.12693780e-04	3.10229140e-04	1.33918800e-04	0.00000000e+00
11.36          	2.07029640e-01	2.12611340e-04	3.09762910e-04	1.95228690e-04	0.00000000e+00
11.365         	3.72567340e-01	2.12526470e-04	3.09293830e-04	2.09131430e-04	0.00000000e+00
11.37          	1.85889120e-01	2.12439070e-04	3.08821770e-04	1.89802380e-04	0.00000000e+00
11.375         	7.54574690e-02	2.12349250e-04	3.08346880e-04	1.86993480e-04	0.00000000e+00
11.38          	3.30201540e-01	2.12256940e-04	3.07869090e-04	1.28066900e-04	0.00000000e+00
11.385         	1.02253660e-01	2.12162140e-04	3.07388380e-04	1.18077900e-04	0.00000000e+00
11.39          	9.22864620e-02	2.12064930e-04	3.06904890e-04	1.11003880e-04	0.00000000e+00
11.395         	1.55692690e-01	2.11965270e-04	3.06418540e-04	1.20351270e-04	0.00000000e+00
11.4           	1.57643480e-01	2.11863160e-04	3.05929360e-04	1.92402230e-04	0.00000000e+00
11.405         	1.54772140e-01	2.11758610e-04	3.05437360e-04	1.45356990e-04	0.00000000e+00
11.41          	2.15644140e-01	2.11651640e-04	3.04942580e-04	2.13934830e-04	0.00000000e+00
11.415         	1.00183240e-01	2.11542220e-04	3.04444970e-04	1.53165030e-04	0.00000000e+00
11.42          	1.34277450e-01	2.11430440e-04	3.03944670e-04	1.85039280e-04	0.00000000e+00
11.425         	2.23691410e-01	2.11316240e-04	3.03441610e-04	2.18684780e-04	0.00000000e+00
11.43          	2.06509390e-01	2.11199610e-04	3.02935750e-04	2.19023580e-04	0.00000000e+00
11.435         	9.26350860e-02	2.11080600e-04	3.02427210e-04	1.94838150e-04	0.00000000e+00
11.44          	3.63717560e-01	2.10959250e-04	3.01916020e-04	2.10826070e-04	0.00000000e+00
11.445         	1.27884470e-01	2.10835510e-04	3.01402110e-04	2.18281040e-04	0.00000000e+00
11.45          	1.25338780e-01	2.10709360e-04	3.00885470e-04	2.28904950e-04	0.00000000e+00
11.455         	3.21813120e-01	2.10580870e-04	3.00366200e-04	1.50094200e-04	0.00000000e+00
11.46          	2.35565330e-01	2.10450050e-04	2.99844350e-04	1.32416530e-04	0.00000000e+00
11.465         	2.07348850e-01	2.10316840e-04	2.99319780e-04	1.18932020e-04	0.00000000e+00
11.47          	3.56325020e-01	2.10181310e-04	2.98792620e-04	9.89155140e-05	0.00000000e+00
11.475         	4.41988520e-01	2.10043480e-04	2.98262920e-04	9.88142530e-05	0.00000000e+00
11.48          	1.49716760e-01	2.09903270e-04	2.97730550e-04	1.05006810e-04	0.00000000e+00
11.485         	4.59148400e-01	2.09760760e-04	2.97195640e-04	1.15426500e-04	0.00000000e+00
11.49          	1.48196840e-01	2.09615940e-04	2.96658170e-04	1.21247130e-04	0.00000000e+00
11.495         	1.73459020e-01	2.09468810e-04	2.96118170e-04	1.48966740e-04	0.00000000e+00
11.5           	2.28653370e-01	2.09319430e-04	2.95575680e-04	2.37765100e-04	0.00000000e+00
11.505         	1.71011470e-01	2.09167730e-04	2.95030660e-04	1.51447380e-04	0.00000000e+00
11.51          	2.69092550e-01	2.09013740e-04	2.94483120e-04	1.17020820e-04	0.00000000e+00
11.515         	2.67949620e-01	2.08857450e-04	2.93933050e-04	1.27800910e-04	0.00000000e+00
11.52          	2.22386560e-01	2.08698940e-04	2.93380580e-04	1.57526390e-04	0.00000000e+00
11.525         	9.74977570e-02	2.08538150e-04	2.92825640e-04	1.44575190e-04	0.00000000e+00
11.53          	1.38011820e-01	2.08375110e-04	2.92268260e-04	1.40778850e-04	0.00000000e+00
11.535         	1.51182620e-01	2.08209790e-04	2.91708390e-04	1.21357390e-04	0.00000000e+00
11.54          	1.09935530e-01	2.08042260e-04	2.91146150e-04	1.17058870e-04	0.00000000e+00
11.545         	8.53945140e-02	2.07872530e-04	2.90581570e-04	1.15050010e-04	0.00000000e+00
11.55          	1.90217170e-01	2.07700530e-04	2.90014530e-04	1.12978040e-04	0.00000000e+00
11.555         	1.42183430e-01	2.07526320e-04	2.89445140e-04	1.96559340e-04	0.00000000e+00
11.56          	2.12215530e-01	2.07349920e-04	2.88873410e-04	1.01330590e-04	0.00000000e+00
11.565         	1.56876240e-01	2.07171320e-04	2.88299340e-04	1.26898450e-04	0.00000000e+00
11.57          	2.85195590e-01	2.06990520e-04	2.87722950e-04	1.52124820e-04	0.00000000e+00
11.575         	1.07854340e-01	2.06807570e-04	2.87144290e-04	9.80341280e-05	0.00000000e+00
11.58          	2.61776080e-01	2.06622400e-04	2.86563260e-04	1.30980800e-04	0.00000000e+00
11.585         	6.48725030e-02	2.06435090e-04	2.85980010e-04	1.39019540e-04	0.00000000e+00
11.59          	9.68032950e-02	2.06245610e-04	2.85394470e-04	1.31380170e-04	0.00000000e+00
11.595         	2.28484720e-01	2.06053970e-04	2.84806670e-04	5.87892210e-05	0.00000000e+00
11.6           	2.59925190e-01	2.05860190e-04	2.84216630e-04	7.76834280e-05	0.00000000e+00
11.605         	8.88298420e-02	2.05664230e-04	2.83624320e-04	1.30324220e-04	0.00000000e+00
11.61          	8.88909180e-02	2.05466190e-04	2.83029870e-04	1.38028430e-04	0.00000000e+00
11.615         	1.90302030e-01	2.05265980e-04	2.82433160e-04	1.10781460e-04	0.00000000e+00
11.62          	1.26649360e-01	2.05063680e-04	2.81834290e-04	9.03685500e-05	0.00000000e+00
11.625         	2.05484550e-01	2.04859300e-04	2.81233300e-04	5.84973700e-05	0.00000000e+00
11.63          	1.44539720e-01	2.04652770e-04	2.80630090e-04	1.23737490e-04	0.00000000e+00
11.635         	1.63996260e-01	2.04444160e-04	2.80024760e-04	1.57203650e-04	0.00000000e+00
11.64          	1.75595260e-01	2.04233480e-04	2.79417310e-04	1.61834320e-04	0.00000000e+00
11.645         	2.65794020e-01	2.04020720e-04	2.78807750e-04	1.62242120e-04	0.00000000e+00
11.65          	1.32230230e-01	2.03805920e-04	2.78196130e-04	2.31763180e-04	0.00000000e+00
11.655         	2.91228680e-01	2.03589040e-04	2.77582410e-04	2.33025990e-04	0.00000000e+00
11.66          	1.83784370e-01	2.03370090e-04	2.76966600e-04	2.11033180e-04	0.00000000e+00
11.665         	1.31996840e-01	2.03149100e-04	2.76348730e-04	2.85884510e-04	0.00000000e+00
11.67          	1.15148100e-01	2.02926050e-04	2.75728780e-04	2.28871540e-04	0.00000000e+00
11.675         	1.76724150e-01	2.02701010e-04	2.75106870e-04	2.58774900e-04	0.00000000e+00
11.68          	1.39902590e-01	2.02473940e-04	2.74482920e-04	2.30822830e-04	0.00000000e+00
11.685         	1.16987340e-01	2.02244810e-04	2.73856930e-04	2.07359550e-04	0.00000000e+00
11.69          	2.48748760e-01	2.02013700e-04	2.73228970e-04	1.79298550e-04	0.00000000e+00
11.695         	2.17817030e-01	2.01780600e-04	2.72599050e-04	2.11434990e-04	0.00000000e+00
11.7           	1.20692710e-01	2.01545510e-04	2.71967180e-04	2.41289030e-04	0.00000000e+00
11.705         	1.58394270e-01	2.01308440e-04	2.71333360e-04	2.62601410e-04	0.00000000e+00
11.71          	1.75828250e-01	2.01069420e-04	2.70697650e-04	3.01096430e-04	0.00000000e+00
11.715         	1.04599090e-01	2.00828390e-04	2.70059960e-04	2.61314590e-04	0.00000000e+00
11.72          	9.80253220e-02	2.00585410e-04	2.69420370e-04	1.84708100e-04	0.00000000e+00
11.725         	1.32458880e-01	2.00340490e-04	2.68778910e-04	2.34747380e-04	0.00000000e+00
11.73          	1.35698970e-01	2.00093660e-04	2.68135610e-04	2.00142080e-04	0.00000000e+00
11.735         	2.73522030e-01	1.99844840e-04	2.67490380e-04	1.82503800e-04	0.00000000e+00
11.74          	1.38602320e-01	1.99594110e-04	2.66843310e-04	2.52437130e-04	0.00000000e+00
11.745         	6.62494240e-02	1.99341490e-04	2.66194460e-04	2.01185890e-04	0.00000000e+00
11.75          	1.29180840e-01	1.99086920e-04	2.65543720e-04	2.47853140e-04	0.00000000e+00
11.755         	2.22887940e-01	1.98830490e-04	2.64891230e-04	2.12695160e-04	0.00000000e+00
11.76          	4.06384740e-01	1.98572150e-04	2.64236930e-04	2.02028240e-04	0.00000000e+00
11.765         	2.53924350e-01	1.98311910e-04	2.63580830e-04	3.06145540e-04	0.00000000e+00
11.77          	1.57648020e-01	1.98049800e-04	2.62922970e-04	2.81863960e-04	0.00000000e+00
11.775         	3.58026040e-01	1.97785820e-04	2.62263350e-04	2.71804810e-04	0.00000000e+00
11.78          	1.58285750e-01	1.97519940e-04	2.61601940e-04	1.97549860e-04	0.00000000e+00
11.785         	1.63267990e-01	1.97252260e-04	2.60938880e-04	2.22683590e-04	0.00000000e+00
11.79          	1.10700820e-01	1.96982720e-04	2.60274080e-04	2.22798520e-04	0.00000000e+00
11.795         	1.21106540e-01	1.96711310e-04	2.59607530e-04	1.88735030e-04	0.00000000e+00
11.8           	2.98132920e-01	1.96438120e-04	2.58939370e-04	1.18292040e-04	0.00000000e+00
11.805         	1.33306200e-01	1.96163060e-04	2.58269460e-04	1.49311290e-04	0.00000000e+00
11.81          	3.70465170e-01	1.95886240e-04	2.57597960e-04	1.36858280e-04	0.00000000e+00
11.815         	7.87166520e-02	1.95607570e-04	2.56924750e-04	1.76042030e-04	0.00000000e+00
11.82          	1.56625530e-01	1.95327110e-04	2.56249930e-04	1.46772380e-04	0.00000000e+00
11.825         	1.30908160e-01	1.95044870e-04	2.55573480e-04	1.53211540e-04	0.00000000e+00
11.83          	1.95548750e-01	1.94760850e-04	2.54895440e-04	1.60478900e-04	0.00000000e+00
11.835         	3.56851090e-01	1.94475060e-04	2.54215790e-04	8.69772850e-05	0.00000000e+00
11.84          	1.29455370e-01	1.94187540e-04	2.53534610e-04	7.65332700e-05	0.00000000e+00
11.845         	2.31787150e-01	1.93898210e-04	2.52851790e-04	7.75554950e-05	0.00000000e+00
11.85          	3.25194260e-01	1.93607140e-04	2.52167430e-04	8.66246580e-05	0.00000000e+00
11.855         	1.30572090e-01	1.93314340e-04	2.51481540e-04	5.73749320e-05	0.00000000e+00
11.86          	1.46275670e-01	1.93019840e-04	2.50794150e-04	9.48530470e-05	0.00000000e+00
11.865         	2.32252240e-01	1.92723600e-04	2.50105230e-04	1.59348830e-04	0.00000000e+00
11.87          	1.50983470e-01	1.92425640e-04	2.49414790e-04	1.23854390e-04	0.00000000e+00
11.875         	4.03826760e-01	1.92125960e-04	2.48722850e-04	6.42590660e-05	0.00000000e+00
11.88          	1.63488630e-01	1.91824560e-04	2.48029400e-04	4.99856160e-05	0.00000000e+00
11.885         	1.87357540e-01	1.91521520e-04	2.47334550e-04	8.34687380e-05	0.00000000e+00
11.89          	2.75485440e-01	1.91216780e-04	2.46638220e-04	1.88018550e-04	0.00000000e+00
11.895         	1.06855310e-01	1.90910370e-04	2.45940460e-04	2.01871730e-04	0.00000000e+00
11.9           	2.84907080e-01	1.90602290e-04	2.45241260e-04	9.93611460e-05	0.00000000e+00
11.905         	1.00411450e-01	1.90292520e-04	2.44540610e-04	1.09778950e-04	0.00000000e+00
11.91          	3.55933940e-01	1.89981150e-04	2.43838620e-04	7.82535950e-05	0.00000000e+00
11.915         	1.36594270e-01	1.89668100e-04	2.43135190e-04	1.66165440e-04	0.00000000e+00
11.92          	1.27824530e-01	1.89353430e-04	2.42430400e-04	1.41312970e-04	0.00000000e+00
11.925         	8.06491640e-02	1.89037170e-04	2.41724300e-04	8.87917900e-05	0.00000000e+00
11.93          	8.49839630e-02	1.88719250e-04	2.41016780e-04	1.31363250e-04	0.00000000e+00
11.935         	1.58097890e-01	1.88399760e-04	2.40307980e-04	1.03111450e-04	0.00000000e+00
11.94          	1.84655630e-01	1.88078630e-04	2.39597800e-04	7.24018580e-05	0.00000000e+00
11.945         	1.33811300e-01	1.87755920e-04	2.38886330e-04	9.07856850e-05	0.00000000e+00
11.95          	7.48379640e-02	1.87431670e-04	2.38173600e-04	1.00787570e-04	0.00000000e+00
11.955         	1.85738320e-01	1.87105820e-04	2.37459560e-04	8.38378140e-05	0.00000000e+00
11.96          	2.03004880e-01	1.86778400e-04	2.36744230e-04	1.39244170e-04	0.00000000e+00
11.965         	1.11217540e-01	1.86449420e-04	2.36027650e-04	1.28994650e-04	0.00000000e+00
11.97          	1.38222020e-01	1.86118890e-04	2.35309810e-04	8.94235600e-05	0.00000000e+00
11.975         	2.05959520e-01	1.85786790e-04	2.34590690e-04	1.54185090e-04	0.00000000e+00
11.98          	2.34386080e-01	1.85453210e-04	2.33870420e-04	7.72687590e-05	0.00000000e+00
11.985         	6.71814220e-02	1.85118060e-04	2.33148880e-04	1.01654720e-04	0.00000000e+00
11.99          	1.35862240e-01	1.84781430e-04	2.32426190e-04	1.64347580e-04	0.00000000e+00
11.995         	1.51434060e-01	1.84443280e-04	2.31702300e-04	7.26921350e-05	0.00000000e+00
12             	1.69134060e-01	1.84103630e-04	2.30977220e-04	1.19074620e-04	0.00000000e+00
12.005         	1.52040540e-01	1.83762490e-04	2.30250980e-04	1.21343800e-04	0.00000000e+00
12.01          	1.71964850e-01	1.83419840e-04	2.29523550e-04	1.15536580e-04	0.00000000e+00
12.015         	2.29627670e-01	1.83075750e-04	2.28795050e-04	6.80598460e-05	0.00000000e+00
12.02          	8.89933570e-02	1.82730160e-04	2.28065360e-04	1.32788640e-04	0.00000000e+00
12.025         	2.12113000e-01	1.82383130e-04	2.27334580e-04	7.47387780e-05	0.00000000e+00
12.03          	1.60636030e-01	1.82034650e-04	2.26602710e-04	8.98308170e-05	0.00000000e+00
12.035         	3.74778490e-01	1.81684730e-04	2.25869740e-04	8.18255480e-05	0.00000000e+00
12.04          	7.90273580e-02	1.81333410e-04	2.25135740e-04	1.30534520e-04	0.00000000e+00
12.045         	2.07451970e-01	1.80980640e-04	2.24400640e-04	1.45974510e-04	0.00000000e+00
12.05          	1.19933060e-01	1.80626450e-04	2.23664490e-04	1.36689670e-04	0.00000000e+00
12.055         	1.54992240e-01	1.80270850e-04	2.22927290e-04	1.55523480e-04	0.00000000e+00
12.06          	9.64092270e-02	1.79913830e-04	2.22189020e-04	1.73949310e-04	0.00000000e+00
12.065         	1.18601050e-01	1.79555430e-04	2.21449760e-04	1.34410790e-04	0.00000000e+00
12.07          	2.95983120e-01	1.79195680e-04	2.20709530e-04	1.37196440e-04	0.00000000e+00
12.075         	1.42866420e-01	1.78834510e-04	2.19968260e-04	1.29620950e-04	0.00000000e+00
12.08          	2.25678030e-01	1.78471980e-04	2.19226020e-04	1.57814000e-04	0.00000000e+00
12.085         	1.77819440e-01	1.78108110e-04	2.18482810e-04	2.59527240e-04	0.00000000e+00
12.09          	1.28962260e-01	1.77742880e-04	2.17738650e-04	1.96507630e-04	0.00000000e+00
12.095         	3.41744860e-01	1.77376340e-04	2.16993580e-04	2.69580880e-04	0.00000000e+00
12.1           	7.94410950e-02	1.77008420e-04	2.16247520e-04	1.86152290e-04	0.00000000e+00
12.105         	1.63770940e-01	1.76639220e-04	2.15500580e-04	2.82734910e-04	0.00000000e+00
12.11          	1.44076750e-01	1.76268660e-04	2.14752680e-04	2.09649270e-04	0.00000000e+00
12.115         	1.34741330e-01	1.75896820e-04	2.14003930e-04	2.14282890e-04	0.00000000e+00
12.12          	7.00390230e-02	1.75523650e-04	2.13254240e-04	1.59585070e-04	0.00000000e+00
12.125         	1.60426910e-01	1.75149230e-04	2.12503720e-04	2.20273870e-04	0.00000000e+00
12.13          	1.25840420e-01	1.74773510e-04	2.11752330e-04	1.69336060e-04	0.00000000e+00
12.135         	2.86319690e-01	1.74396510e-04	2.11000070e-04	1.55171390e-04	0.00000000e+00
12.14          	1.60057530e-01	1.74018220e-04	2.10246940e-04	1.78615280e-04	0.00000000e+00
12.145         	1.31147020e-01	1.73638710e-04	2.09493040e-04	1.88923420e-04	0.00000000e+00
12.15          	1.75645250e-01	1.73257930e-04	2.08738300e-04	1.97791620e-04	0.00000000e+00
12.155         	2.78902570e-01	1.72875910e-04	2.07982750e-04	2.40303060e-04	0.00000000e+00
12.16          	1.80277200e-01	1.72492640e-04	2.07226370e-04	2.27522530e-04	0.00000000e+00
12.165         	5.38459000e-02	1.72108170e-04	2.06469260e-04	1.78987800e-04	0.00000000e+00
12.17          	3.13110620e-01	1.71722460e-04	2.05711330e-04	1.86635720e-04	0.00000000e+00
12.175         	3.81579950e-01	1.71335540e-04	2.04952650e-04	1.89109400e-04	0.00000000e+00
12.18          	1.71869000e-01	1.70947460e-04	2.04193260e-04	2.52113810e-04	0.00000000e+00
12.185         	1.55928420e-01	1.70558170e-04	2.03433120e-04	2.18737450e-04	0.00000000e+00
12.19          	4.71126380e-01	1.70167660e-04	2.02672210e-04	1.82803720e-04	0.00000000e+00
12.195         	9.75521290e-02	1.69776010e-04	2.01910630e-04	1.33853110e-04	0.00000000e+00
12.2           	1.52066700e-01	1.69383170e-04	2.01148310e-04	1.55693750e-04	0.00000000e+00
12.205         	1.81661970e-01	1.68989200e-04	2.00385330e-04	1.66311210e-04	0.00000000e+00
12.21          	3.68863180e-01	1.68594060e-04	1.99621660e-04	2.21182920e-04	0.00000000e+00
12.215         	1.87103400e-01	1.68197760e-04	1.98857280e-04	1.72560760e-04	0.00000000e+00
12.22          	2.80845180e-01	1.67800330e-04	1.98092270e-04	2.32053210e-04	0.00000000e+00
12.225         	1.42232650e-01	1.67401810e-04	1.97326630e-04	1.76094780e-04	0.00000000e+00
12.23          	1.48433720e-01	1.67002150e-04	1.96560350e-04	1.97155190e-04	0.00000000e+00
12.235         	1.11426500e-01	1.66601380e-04	1.95793430e-04	1.91262390e-04	0.00000000e+00
12.24          	2.52649300e-01	1.66199480e-04	1.95025860e-04	1.78280880e-04	0.00000000e+00
12.245         	1.02178270e-01	1.65796530e-04	1.94257740e-04	1.72257580e-04	0.00000000e+00
12.25          	1.69419740e-01	1.65392480e-04	1.93489010e-04	1.83939710e-04	0.00000000e+00
12.255         	9.06784030e-02	1.64987330e-04	1.92719660e-04	1.68793140e-04	0.00000000e+00
12.26          	3.36760580e-01	1.64581140e-04	1.91949790e-04	1.76902930e-04	0.00000000e+00
12.265         	9.26659600e-02	1.64173860e-04	1.91179310e-04	1.36313480e-04	0.00000000e+00
12.27          	1.45468520e-01	1.63765540e-04	1.90408300e-04	1.36365490e-04	0.00000000e+00
12.275         	1.19346730e-01	1.63356170e-04	1.89636760e-04	1.26493660e-04	0.00000000e+00
12.28          	2.43102710e-01	1.62945770e-04	1.88864690e-04	2.25718850e-04	0.00000000e+00
12.285         	3.88812530e-01	1.62534350e-04	1.88092100e-04	2.21214290e-04	0.00000000e+00
12.29          	6.44361590e-02	1.62121920e-04	1.87319030e-04	1.55777920e-04	0.00000000e+00
12.295         	1.81605750e-01	1.61708450e-04	1.86545420e-04	1.35937430e-04	0.00000000e+00
12.3           	3.27084360e-01	1.61293980e-04	1.85771340e-04	1.85281460e-04	0.00000000e+00
12.305         	2.55438890e-01	1.60878540e-04	1.84996820e-04	2.31689150e-04	0.00000000e+00
12.31          	1.49705910e-01	1.60462080e-04	1.84221780e-04	1.94092360e-04	0.00000000e+00
12.315         	1.86183280e-01	1.60044670e-04	1.83446340e-04	2.50271700e-04	0.00000000e+00
12.32          	1.22093060e-01	1.59626280e-04	1.82670430e-04	1.98167580e-04	0.00000000e+00
12.325         	3.85938610e-01	1.59206890e-04	1.81894060e-04	1.63464360e-04	0.00000000e+00
12.33          	1.48458120e-01	1.58786570e-04	1.81117290e-04	1.66816390e-04	0.00000000e+00
12.335         	8.75696350e-02	1.58365320e-04	1.80340130e-04	1.54606360e-04	0.00000000e+00
12.34          	1.49687110e-01	1.57943100e-04	1.79562540e-04	1.92864420e-04	0.00000000e+00
12.345         	1.90608840e-01	1.57519960e-04	1.78784560e-04	2.17301510e-04	0.00000000e+00
12.35          	1.95388630e-01	1.57095930e-04	1.78006240e-04	1.30314760e-04	0.00000000e+00
12.355         	8.06926740e-02	1.56670960e-04	1.77227530e-04	1.24708780e-04	0.00000000e+00
12.36          	1.64698220e-01	1.56245060e-04	1.76448430e-04	1.60453640e-04	0.00000000e+00
12.365         	1.64158590e-01	1.55818270e-04	1.75669000e-04	1.46261360e-04	0.00000000e+00
12.37          	1.94022040e-01	1.55390620e-04	1.74889260e-04	1.48518280e-04	0.00000000e+00
12.375         	1.06439030e-01	1.54962070e-04	1.74109170e-04	1.37735710e-04	0.00000000e+00
12.38          	3.02314230e-01	1.54532640e-04	1.73328770e-04	9.64583720e-05	0.00000000e+00
12.385         	1.54811800e-01	1.54102350e-04	1.72548050e-04	1.42694850e-04	0.00000000e+00
12.39          	2.28018680e-01	1.53671170e-04	1.71767010e-04	1.23371830e-04	0.00000000e+00
12.395         	1.20859390e-01	1.53239150e-04	1.70985700e-04	1.49851460e-04	0.00000000e+00
12.4           	2.76672010e-01	1.52806300e-04	1.70204110e-04	7.30304480e-05	0.00000000e+00
12.405         	1.22630500e-01	1.52372640e-04	1.69422290e-04	8.04210200e-05	0.00000000e+00
12.41          	1.53287070e-01	1.51938130e-04	1.68640200e-04	1.15596680e-04	0.00000000e+00
12.415         	2.20892940e-01	1.51502780e-04	1.67857830e-04	1.22013250e-04	0.00000000e+00
12.42          	1.51770940e-01	1.51066650e-04	1.67075260e-04	1.28126040e-04	0.00000000e+00
12.425         	7.40501530e-02	1.50629710e-04	1.66292450e-04	7.49963130e-05	0.00000000e+00
12.43          	1.40458670e-01	1.50191970e-04	1.65509420e-04	1.49611210e-04	0.00000000e+00
12.435         	1.23936870e-01	1.49753420e-04	1.64726160e-04	9.51663420e-05	0.00000000e+00
12.44          	2.02460020e-01	1.49314100e-04	1.63942720e-04	1.86674140e-04	0.00000000e+00
12.445         	1.80016880e-01	1.48874020e-04	1.63159100e-04	1.78561990e-04	0.00000000e+00
12.45          	2.72159560e-01	1.48433180e-04	1.62375300e-04	1.65932400e-04	0.00000000e+00
12.455         	1.80599930e-01	1.47991570e-04	1.61591330e-04	1.10246870e-04	0.00000000e+00
12.46          	1.02693710e-01	1.47549230e-04	1.60807210e-04	1.09426060e-04	0.00000000e+00
12.465         	1.21349070e-01	1.47106140e-04	1.60022940e-04	1.89476460e-04	0.00000000e+00
12.47          	3.26949930e-01	1.46662310e-04	1.59238540e-04	1.08394940e-04	0.00000000e+00
12.475         	1.05584480e-01	1.46217790e-04	1.58454030e-04	1.19265340e-04	0.00000000e+00
12.48          	1.87558800e-01	1.45772510e-04	1.57669360e-04	1.62756380e-04	0.00000000e+00
12.485         	1.71791760e-01	1.45326530e-04	1.56884590e-04	1.23852830e-04	0.00000000e+00
12.49          	1.78067970e-01	1.44879880e-04	1.56099750e-04	1.03280260e-04	0.00000000e+00
12.495         	1.43233430e-01	1.44432500e-04	1.55314790e-04	1.30453610e-04	0.00000000e+00
12.5           	1.39088990e-01	1.43984460e-04	1.54529780e-04	1.44254870e-04	0.00000000e+00
12.505         	1.11706030e-01	1.43535730e-04	1.53744680e-04	1.64290480e-04	0.00000000e+00
12.51          	1.45377000e-01	1.43086310e-04	1.52959500e-04	2.11224240e-04	0.00000000e+00
12.515         	2.53901780e-01	1.42636240e-04	1.52174290e-04	1.23923300e-04	0.00000000e+00
12.52          	1.01763260e-01	1.42185520e-04	1.51389030e-04	1.10233750e-04	0.00000000e+00
12.525         	1.32938980e-01	1.41734170e-04	1.50603770e-04	1.14447430e-04	0.00000000e+00
12.53          	1.28414470e-01	1.41282180e-04	1.49818470e-04	1.35790340e-04	0.00000000e+00
12.535         	4.02897290e-01	1.40829540e-04	1.49033160e-04	1.28951620e-04	0.00000000e+00
12.54          	1.79516170e-01	1.40376280e-04	1.48247840e-04	1.23987500e-04	0.00000000e+00
12.545         	2.11198870e-01	1.39922400e-04	1.47462520e-04	1.03739000e-04	0.00000000e+00
12.55          	2.78099960e-01	1.39467920e-04	1.46677220e-04	1.08486190e-04	0.00000000e+00
12.555         	1.10848280e-01	1.39012830e-04	1.45891940e-04	1.28616150e-04	0.00000000e+00
12.56          	5.25142540e-02	1.38557150e-04	1.45106700e-04	8.60192720e-05	0.00000000e+00
12.565         	4.14941010e-01	1.38100860e-04	1.44321480e-04	5.17108910e-05	0.00000000e+00
12.57          	1.19853330e-01	1.37644030e-04	1.43536350e-04	9.05416440e-05	0.00000000e+00
12.575         	9.55932180e-02	1.37186600e-04	1.42751240e-04	8.09748110e-05	0.00000000e+00
12.58          	1.61855590e-01	1.36728640e-04	1.41966240e-04	9.62560210e-05	0.00000000e+00
12.585         	1.08734210e-01	1.36270110e-04	1.41181310e-04	6.33110440e-05	0.00000000e+00
12.59          	3.90332100e-01	1.35811030e-04	1.40396470e-04	6.77518930e-05	0.00000000e+00
12.595         	1.10377770e-01	1.35351390e-04	1.39611700e-04	8.25704020e-05	0.00000000e+00
12.6           	1.29225040e-01	1.34891230e-04	1.38827050e-04	6.70547280e-05	0.00000000e+00
12.605         	1.82688930e-01	1.34430550e-04	1.38042530e-04	1.14946420e-04	0.00000000e+00
12.61          	1.89322600e-01	1.33969350e-04	1.37258130e-04	1.48531290e-04	0.00000000e+00
12.615         	1.07738310e-01	1.33507670e-04	1.36473880e-04	1.13328150e-04	0.00000000e+00
12.62          	3.27934540e-01	1.33045460e-04	1.35689770e-04	1.32682540e-04	0.00000000e+00
12.625         	4.29392160e-01	1.32582740e-04	1.34905780e-04	1.99020230e-04	0.00000000e+00
12.63          	3.60773370e-01	1.32119560e-04	1.34121990e-04	1.12803470e-04	0.00000000e+00
12.635         	9.82924760e-02	1.31655870e-04	1.33338330e-04	1.21967010e-04	0.00000000e+00
12.64          	2.92982760e-01	1.31191720e-04	1.32554870e-04	1.83762700e-04	0.00000000e+00
12.645         	1.34747630e-01	1.30727110e-04	1.31771600e-04	1.73394710e-04	0.00000000e+00
12.65          	1.18704150e-01	1.30262060e-04	1.30988540e-04	1.72367320e-04	0.00000000e+00
12.655         	9.17166740e-02	1.29796540e-04	1.30205680e-04	9.72753190e-05	0.00000000e+00
12.66          	1.24878960e-01	1.29330560e-04	1.29423010e-04	1.02850400e-04	0.00000000e+00
12.665         	1.32613640e-01	1.28864160e-04	1.28640570e-04	7.92169720e-05	0.00000000e+00
12.67          	1.92948050e-01	1.28397330e-04	1.27858370e-04	1.21098630e-04	0.00000000e+00
12.675         	2.60396200e-01	1.27930080e-04	1.27076410e-04	1.35013390e-04	0.00000000e+00
12.68          	2.43763420e-01	1.27462410e-04	1.26294700e-04	1.16830620e-04	0.00000000e+00
12.685         	1.25642040e-01	1.26994340e-04	1.25513240e-04	9.67109390e-05	0.00000000e+00
12.69          	1.29667180e-01	1.26525870e-04	1.24732060e-04	9.73117270e-05	0.00000000e+00
12.695         	4.29285040e-02	1.26057010e-04	1.23951140e-04	1.60043780e-04	0.00000000e+00
12.7           	1.73757920e-01	1.25587780e-04	1.23170530e-04	1.06809780e-04	0.00000000e+00
12.705         	1.78734050e-01	1.25118160e-04	1.22390200e-04	8.40474180e-05	0.00000000e+00
12.71          	1.37270250e-01	1.24648170e-04	1.21610170e-04	7.64254160e-05	0.00000000e+00
12.715         	1.49659080e-01	1.24177800e-04	1.20830420e-04	7.97341820e-05	0.00000000e+00
12.72          	1.36138120e-01	1.23707090e-04	1.20051020e-04	1.10239120e-04	0.00000000e+00
12.725         	1.15158030e-01	1.23236040e-04	1.19271940e-04	9.76864800e-05	0.00000000e+00
12.73          	2.10888720e-01	1.22764620e-04	1.18493180e-04	1.29182400e-04	0.00000000e+00
12.735         	1.73830770e-01	1.22292890e-04	1.17714780e-04	7.81289030e-05	0.00000000e+00
12.74          	1.15686540e-01	1.21820810e-04	1.16936710e-04	7.53198410e-05	0.00000000e+00
12.745         	1.51874080e-01	1.21348420e-04	1.16159010e-04	1.03603260e-04	0.00000000e+00
12.75          	1.29063960e-01	1.20875720e-04	1.15381680e-04	1.12679900e-04	0.00000000e+00
12.755         	1.16392800e-01	1.20402730e-04	1.14604740e-04	9.64630580e-05	0.00000000e+00
12.76          	2.76613410e-01	1.19929440e-04	1.13828170e-04	9.43422150e-05	0.00000000e+00
12.765         	2.12333450e-01	1.19455840e-04	1.13052000e-04	9.10625860e-05	0.00000000e+00
12.77          	2.34127020e-01	1.18981960e-04	1.12276220e-04	1.04659190e-04	0.00000000e+00
12.775         	1.54370760e-01	1.18507810e-04	1.11500850e-04	9.25333140e-05	0.00000000e+00
12.78          	2.07108350e-01	1.18033380e-04	1.10725900e-04	1.04105980e-04	0.00000000e+00
12.785         	9.89540660e-02	1.17558690e-04	1.09951370e-04	6.13279580e-05	0.00000000e+00
12.79          	1.96235140e-01	1.17083740e-04	1.09177270e-04	1.02214750e-04	0.00000000e+00
12.795         	9.15290450e-02	1.16608530e-04	1.08403600e-04	1.05435780e-04	0.00000000e+00
12.8           	2.06827450e-01	1.16133100e-04	1.07630410e-04	9.69147530e-05	0.00000000e+00
12.805         	7.02447620e-02	1.15657430e-04	1.06857660e-04	6.88094390e-05	0.00000000e+00
12.81          	1.31744900e-01	1.15181530e-04	1.06085380e-04	9.85312180e-05	0.00000000e+00
12.815         	1.05943490e-01	1.14705380e-04	1.05313560e-04	1.04213950e-04	0.00000000e+00
12.82          	1.53734170e-01	1.14229040e-04	1.04542220e-04	9.25693330e-05	0.00000000e+00
12.825         	2.35801400e-01	1.13752500e-04	1.03771390e-04	1.08084550e-04	0.00000000e+00
12.83          	1.56407560e-01	1.13275740e-04	1.03001040e-04	9.51518670e-05	0.00000000e+00
12.835         	2.10879590e-01	1.12798810e-04	1.02231210e-04	9.53292740e-05	0.00000000e+00
12.84          	3.22424150e-01	1.12321690e-04	1.01461890e-04	8.36638270e-05	0.00000000e+00
12.845         	1.96794520e-01	1.11844360e-04	1.00693070e-04	6.27159770e-05	0.00000000e+00
12.85          	9.05761980e-02	1.11366870e-04	9.99247840e-05	1.28780150e-04	0.00000000e+00
12.855         	1.89028300e-01	1.10889230e-04	9.91570540e-05	1.13945820e-04	0.00000000e+00
12.86          	1.76172710e-01	1.10411410e-04	9.83898440e-05	6.59681800e-05	0.00000000e+00
12.865         	3.00953190e-01	1.09933440e-04	9.76231920e-05	6.52319870e-05	0.00000000e+00
12.87          	1.73295410e-01	1.09455330e-04	9.68571010e-05	7.70134820e-05	0.00000000e+00
12.875         	2.56708090e-01	1.08977090e-04	9.60915910e-05	9.63575850e-05	0.00000000e+00
12.88          	4.75446950e-01	1.08498690e-04	9.53266320e-05	6.61612850e-05	0.00000000e+00
12.885         	1.30116080e-01	1.08020180e-04	9.45622600e-05	8.25712730e-05	0.00000000e+00
12.89          	3.77700680e-01	1.07541560e-04	9.37984940e-05	1.02991590e-04	0.00000000e+00
12.895         	2.44956180e-01	1.07062810e-04	9.30353030e-05	8.69336150e-05	0.00000000e+00
12.9           	1.15863400e-01	1.06583970e-04	9.22727350e-05	7.74471100e-05	0.00000000e+00
12.905         	1.24987310e-01	1.06105010e-04	9.15107590e-05	1.27506660e-04	0.00000000e+00
12.91          	3.08808690e-01	1.05625970e-04	9.07494220e-05	1.37484580e-04	0.00000000e+00
12.915         	1.30781030e-01	1.05146850e-04	8.99887050e-05	9.74769330e-05	0.00000000e+00
12.92          	1.01336180e-01	1.04667640e-04	8.92286200e-05	8.63862320e-05	0.00000000e+00
12.925         	1.18027410e-01	1.04188350e-04	8.84691760e-05	8.34687730e-05	0.00000000e+00
12.93          	1.57979820e-01	1.03709000e-04	8.77103800e-05	9.37345910e-05	0.00000000e+00
12.935         	3.70343280e-01	1.03229580e-04	8.69522280e-05	8.69319430e-05	0.00000000e+00
12.94          	1.05888530e-01	1.02750110e-04	8.61947480e-05	8.24992440e-05	0.00000000e+00
12.945         	3.04396000e-01	1.02270590e-04	8.54379420e-05	1.41483190e-04	0.00000000e+00
12.95          	1.00053040e-01	1.01791040e-04	8.46818140e-05	1.37169130e-04	0.00000000e+00
12.955         	1.14278670e-01	1.01311450e-04	8.39263720e-05	1.43179540e-04	0.00000000e+00
12.96          	1.20157620e-01	1.00831850e-04	8.31716350e-05	1.18363400e-04	0.00000000e+00
12.965         	1.57080480e-01	1.00352210e-04	8.24175780e-05	1.32022000e-04	0.00000000e+00
12.97          	1.98761930e-01	9.98725520e-05	8.16642330e-05	1.02165930e-04	0.00000000e+00
12.975         	1.57937220e-01	9.93929040e-05	8.09116150e-05	1.37792300e-04	0.00000000e+00
12.98          	1.00746400e-01	9.89132450e-05	8.01597110e-05	1.06627050e-04	0.00000000e+00
12.985         	8.18235130e-02	9.84335750e-05	7.94085210e-05	1.13099220e-04	0.00000000e+00
12.99          	1.01055620e-01	9.79539360e-05	7.86580850e-05	9.10226650e-05	0.00000000e+00
12.995         	3.17116480e-01	9.74742950e-05	7.79083750e-05	1.62278170e-04	0.00000000e+00
13             	1.45461720e-01	9.69946960e-05	7.71594310e-05	8.94211830e-05	0.00000000e+00
13.005         	9.73658860e-02	9.65151080e-05	7.64112270e-05	9.91867480e-05	0.00000000e+00
13.01          	3.01726180e-01	9.60355620e-05	7.56637920e-05	1.07941810e-04	0.00000000e+00
13.015         	2.69921940e-01	9.55560600e-05	7.49171290e-05	9.82278990e-05	0.00000000e+00
13.02          	1.01225330e-01	9.50766190e-05	7.41712540e-05	8.93292840e-05	0.00000000e+00
13.025         	4.16658180e-01	9.45972120e-05	7.34261460e-05	1.28884190e-04	0.00000000e+00
13.03          	1.01139390e-01	9.41178840e-05	7.26818440e-05	1.14736360e-04	0.00000000e+00
13.035         	2.36463750e-01	9.36386160e-05	7.19383350e-05	1.16516710e-04	0.00000000e+00
13.04          	1.24524120e-01	9.31594190e-05	7.11956280e-05	1.90613680e-04	0.00000000e+00
13.045         	1.94153590e-01	9.26803010e-05	7.04537320e-05	1.74758500e-04	0.00000000e+00
13.05          	1.07337890e-01	9.22012670e-05	6.97126530e-05	1.10638190e-04	0.00000000e+00
13.055         	9.43194620e-02	9.17223250e-05	6.89724000e-05	1.08634490e-04	0.00000000e+00
13.06          	9.40165500e-02	9.12434810e-05	6.82329780e-05	1.09920860e-04	0.00000000e+00
13.065         	1.43039010e-01	9.07647280e-05	6.74943850e-05	1.47371350e-04	0.00000000e+00
13.07          	1.50223110e-01	9.02861040e-05	6.67566530e-05	1.19439430e-04	0.00000000e+00
13.075         	1.54954180e-01	8.98075800e-05	6.60197590e-05	1.16301660e-04	0.00000000e+00
13.08          	1.12349370e-01	8.93291950e-05	6.52837370e-05	1.00077420e-04	0.00000000e+00
13.085         	3.13943270e-01	8.88509320e-05	6.45485750e-05	7.98164500e-05	0.00000000e+00
13.09          	1.57236040e-01	8.83727890e-05	6.38142740e-05	1.27378850e-04	0.00000000e+00
13.095         	2.04317440e-01	8.78947930e-05	6.30808570e-05	6.08155240e-05	0.00000000e+00
13.1           	1.45406850e-01	8.74169450e-05	6.23483260e-05	1.15985480e-04	0.00000000e+00
13.105         	2.71207420e-01	8.69392500e-05	6.16166870e-05	9.42208040e-05	0.00000000e+00
13.11          	3.58934230e-01	8.64617240e-05	6.08859540e-05	1.17665070e-04	0.00000000e+00
13.115         	1.13595580e-01	8.59843540e-05	6.01561190e-05	7.97338180e-05	0.00000000e+00
13.12          	1.29672310e-01	8.55071510e-05	5.94271920e-05	1.19616150e-04	0.00000000e+00
13.125         	3.81294980e-01	8.50301230e-05	5.86991810e-05	8.89632360e-05	0.00000000e+00
13.13          	2.09437560e-01	8.45532750e-05	5.79720930e-05	9.10502120e-05	0.00000000e+00
13.135         	1.35966640e-01	8.40766140e-05	5.72459350e-05	1.16001910e-04	0.00000000e+00
13.14          	1.10928630e-01	8.36001350e-05	5.65207040e-05	1.49908770e-04	0.00000000e+00
13.145         	5.63060280e-02	8.31238730e-05	5.57964280e-05	1.01110310e-04	0.00000000e+00
13.15          	1.92154240e-01	8.26477990e-05	5.50730890e-05	5.92736740e-05	0.00000000e+00
13.155         	1.53930770e-01	8.21719420e-05	5.43507090e-05	1.21499090e-04	0.00000000e+00
13.16          	3.16146440e-01	8.16963130e-05	5.36292990e-05	1.36070070e-04	0.00000000e+00
13.165         	1.46419160e-01	8.12208880e-05	5.29088440e-05	1.17515530e-04	0.00000000e+00
13.17          	9.39732150e-02	8.07456950e-05	5.21893650e-05	8.17131450e-05	0.00000000e+00
13.175         	1.45453060e-01	8.02707480e-05	5.14708730e-05	1.07045420e-04	0.00000000e+00
13.18          	1.01176860e-01	7.97960330e-05	5.07533630e-05	9.46509660e-05	0.00000000e+00
13.185         	4.17279560e-01	7.93215600e-05	5.00368430e-05	1.71164760e-04	0.00000000e+00
13.19          	4.00897190e-01	7.88473360e-05	4.93213200e-05	8.39326500e-05	0.00000000e+00
13.195         	1.54364540e-01	7.83733680e-05	4.86068000e-05	9.72042620e-05	0.00000000e+00
13.2           	1.08917150e-01	7.78996610e-05	4.78932900e-05	6.25085520e-05	0.00000000e+00
13.205         	2.27997040e-01	7.74262100e-05	4.71807890e-05	9.49349580e-05	0.00000000e+00
13.21          	1.93090830e-01	7.69530390e-05	4.64693140e-05	1.32803990e-04	0.00000000e+00
13.215         	2.86222420e-01	7.64801580e-05	4.57588740e-05	1.10683430e-04	0.00000000e+00
13.22          	1.37090370e-01	7.60075440e-05	4.50494580e-05	1.19421460e-04	0.00000000e+00
13.225         	2.32514490e-01	7.55352240e-05	4.43410850e-05	7.77856360e-05	0.00000000e+00
13.23          	2.66017630e-01	7.50632000e-05	4.36337570e-05	9.13510990e-05	0.00000000e+00
13.235         	9.79760650e-02	7.45914860e-05	4.29274880e-05	8.24680640e-05	0.00000000e+00
13.24          	1.91185610e-01	7.41200610e-05	4.22222650e-05	1.04696770e-04	0.00000000e+00
13.245         	2.12619960e-01	7.36489610e-05	4.15181140e-05	6.99220580e-05	0.00000000e+00
13.25          	4.17853120e-01	7.31781630e-05	4.08150230e-05	1.17419350e-04	0.00000000e+00
13.255         	1.18209180e-01	7.27077000e-05	4.01130150e-05	7.82134410e-05	0.00000000e+00
13.26          	1.88062770e-01	7.22375500e-05	3.94120780e-05	9.17316690e-05	0.00000000e+00
13.265         	1.43374430e-01	7.17677470e-05	3.87122360e-05	1.27324370e-04	0.00000000e+00
13.27          	1.19911690e-01	7.12982670e-05	3.80134770e-05	5.81864510e-05	0.00000000e+00
13.275         	8.51430400e-02	7.08291350e-05	3.73158180e-05	7.66850550e-05	0.00000000e+00
13.28          	9.39040800e-02	7.03603530e-05	3.66192620e-05	8.72116280e-05	0.00000000e+00
13.285         	1.73166710e-01	6.98919330e-05	3.59238210e-05	8.48058340e-05	0.00000000e+00
13.29          	1.59872050e-01	6.94238580e-05	3.52294850e-05	7.16390330e-05	0.00000000e+00
13.295         	1.17344680e-01	6.89561600e-05	3.45362770e-05	9.53936140e-05	0.00000000e+00
13.3           	1.35684560e-01	6.84888170e-05	3.38441860e-05	1.16771710e-04	0.00000000e+00
13.305         	1.50450740e-01	6.80218620e-05	3.31532330e-05	9.84193120e-05	0.00000000e+00
13.31          	2.52767630e-01	6.75552740e-05	3.24634090e-05	1.03580120e-04	0.00000000e+00
13.315         	8.53771190e-02	6.70890830e-05	3.17747340e-05	8.14095570e-05	0.00000000e+00
13.32          	3.20392300e-01	6.66232700e-05	3.10871990e-05	1.31091180e-04	0.00000000e+00
13.325         	2.51282150e-01	6.61578560e-05	3.04008190e-05	6.86525340e-05	0.00000000e+00
13.33          	1.05607670e-01	6.56928440e-05	2.97155980e-05	6.44012060e-05	0.00000000e+00
13.335         	2.85852410e-01	6.52282370e-05	2.90315410e-05	1.62443500e-04	0.00000000e+00
13.34          	1.17640770e-01	6.47640410e-05	2.83486520e-05	5.75561470e-05	0.00000000e+00
13.345         	1.05829570e-01	6.43002610e-05	2.76669380e-05	7.29736510e-05	0.00000000e+00
13.35          	1.04206150e-01	6.38369090e-05	2.69864070e-05	6.92552950e-05	0.00000000e+00
13.355         	1.86516310e-01	6.33739770e-05	2.63070570e-05	1.08617440e-04	0.00000000e+00
13.36          	1.83071260e-01	6.29114740e-05	2.56288970e-05	7.20282980e-05	0.00000000e+00
13.365         	6.83796330e-02	6.24493970e-05	2.49519290e-05	6.89249620e-05	0.00000000e+00
13.37          	2.02107610e-01	6.19877670e-05	2.42761630e-05	1.50710090e-04	0.00000000e+00
13.375         	5.72290950e-02	6.15265910e-05	2.36016070e-05	8.55843550e-05	0.00000000e+00
13.38          	2.17136510e-01	6.10658610e-05	2.29282600e-05	8.94827450e-05	0.00000000e+00
13.385         	1.60086860e-01	6.06055840e-05	2.22561280e-05	1.10235560e-04	0.00000000e+00
13.39          	2.60817500e-01	6.01457600e-05	2.15852130e-05	9.01359860e-05	0.00000000e+00
13.395         	1.28115830e-01	5.96864050e-05	2.09155270e-05	8.68431500e-05	0.00000000e+00
13.4           	2.98443620e-01	5.92275220e-05	2.02470730e-05	8.46514100e-05	0.00000000e+00
13.405         	1.07449170e-01	5.87691210e-05	1.95798590e-05	7.62377740e-05	0.00000000e+00
13.41          	1.61203330e-01	5.83111950e-05	1.89138830e-05	6.05581520e-05	0.00000000e+00
13.415         	1.55560160e-01	5.78537520e-05	1.82491540e-05	8.84704860e-05	0.00000000e+00
13.42          	1.45380510e-01	5.73967900e-05	1.75856730e-05	1.02035200e-04	0.00000000e+00
13.425         	1.59526430e-01	5.69403260e-05	1.69234500e-05	1.24741810e-04	0.00000000e+00
13.43          	1.20829300e-01	5.64843690e-05	1.62624910e-05	4.99686210e-05	0.00000000e+00
13.435         	1.25012050e-01	5.60289120e-05	1.56027970e-05	6.45988340e-05	0.00000000e+00
13.44          	1.12784160e-01	5.55739600e-05	1.49443730e-05	1.05992470e-04	0.00000000e+00
13.445         	1.23845530e-01	5.51195140e-05	1.42872230e-05	1.46496040e-04	0.00000000e+00
13.45          	1.48883010e-01	5.46655900e-05	1.36313560e-05	7.48838490e-05	0.00000000e+00
13.455         	8.54905420e-02	5.42121960e-05	1.29767760e-05	8.53328910e-05	0.00000000e+00
13.46          	2.62456120e-01	5.37593240e-05	1.23234850e-05	1.08400020e-04	0.00000000e+00
13.465         	4.21540500e-01	5.33069810e-05	1.16714890e-05	8.93910570e-05	0.00000000e+00
13.47          	2.03003860e-01	5.28551680e-05	1.10207910e-05	7.51667680e-05	0.00000000e+00
13.475         	1.56045150e-01	5.24038990e-05	1.03713990e-05	1.04584390e-04	0.00000000e+00
13.48          	1.86218470e-01	5.19531820e-05	9.72331830e-06	8.79777870e-05	0.00000000e+00
13.485         	1.97207780e-01	5.15030050e-05	9.07654910e-06	7.40617100e-05	0.00000000e+00
13.49          	1.76079480e-01	5.10533900e-05	8.43110050e-06	1.66203410e-04	0.00000000e+00
13.495         	1.27753480e-01	5.06043310e-05	7.78697440e-06	1.11474290e-04	0.00000000e+00
13.5           	7.32831140e-02	5.01558330e-05	7.14417610e-06	8.77665100e-05	0.00000000e+00
13.505         	1.74595550e-01	4.97078950e-05	6.50270920e-06	1.45800500e-04	0.00000000e+00
13.51          	1.26578720e-01	4.92605400e-05	5.86258100e-06	1.29167630e-04	0.00000000e+00
13.515         	1.62638630e-01	4.88137510e-05	5.22379310e-06	9.70316170e-05	0.00000000e+00
13.52          	1.22198060e-01	4.83675520e-05	4.58635260e-06	8.78079610e-05	0.00000000e+00
13.525         	1.29327890e-01	4.79219290e-05	3.95026160e-06	1.31663980e-04	0.00000000e+00
13.53          	4.09463020e-01	4.74769040e-05	3.31552660e-06	1.03640830e-04	0.00000000e+00
13.535         	1.05533500e-01	4.70324690e-05	2.68215090e-06	1.06106880e-04	0.00000000e+00
13.54          	9.74939410e-02	4.65886250e-05	2.05013870e-06	1.46325490e-04	0.00000000e+00
13.545         	5.18278200e-01	4.61453920e-05	1.41949540e-06	9.65009270e-05	0.00000000e+00
13.55          	1.74266310e-01	4.57027630e-05	7.90224690e-07	1.01823780e-04	0.00000000e+00
13.555         	1.43150430e-01	4.52604680e-05	2.31111970e-07	7.83019610e-05	0.00000000e+00
13.56          	2.40251670e-01	4.48189690e-05	6.22973680e-07	7.98982210e-05	0.00000000e+00
13.565         	1.23548590e-01	4.43784020e-05	1.03105040e-06	7.75617430e-05	0.00000000e+00
13.57          	3.74456530e-01	4.39383940e-05	1.78136320e-06	8.64977290e-05	0.00000000e+00
13.575         	1.19689850e-01	4.34989300e-05	2.43712840e-06	7.48248590e-05	0.00000000e+00
13.58          	9.92630100e-02	4.30600610e-05	3.06043790e-06	8.50810870e-05	0.00000000e+00
13.585         	7.09170990e-02	4.26217990e-05	3.67199860e-06	9.00542130e-05	0.00000000e+00
13.59          	1.25303330e-01	4.21841750e-05	4.27871770e-06	6.86247230e-05	0.00000000e+00
13.595         	1.96989840e-01	4.17471890e-05	4.88289620e-06	9.55557620e-05	0.00000000e+00
13.6           	1.64945870e-01	4.13108480e-05	5.48530030e-06	7.54483610e-05	0.00000000e+00
13.605         	1.93529790e-01	4.08751540e-05	6.09138490e-06	1.24858210e-04	0.00000000e+00
13.61          	1.33545470e-01	4.04401230e-05	6.70032720e-06	6.32796150e-05	0.00000000e+00
13.615         	1.39701030e-01	4.00057510e-05	7.30783710e-06	7.73605500e-05	0.00000000e+00
13.62          	2.61096470e-01	3.95720410e-05	7.91391900e-06	1.09762880e-04	0.00000000e+00
13.625         	1.24202650e-01	3.91389950e-05	8.51857050e-06	6.10540830e-05	0.00000000e+00
13.63          	7.43134770e-02	3.87066230e-05	9.12179020e-06	1.25679820e-04	0.00000000e+00
13.635         	1.11634740e-01	3.82749340e-05	9.72357520e-06	4.95916720e-05	0.00000000e+00
13.64          	2.35196720e-01	3.78439210e-05	1.03239200e-05	9.27561450e-05	0.00000000e+00
13.645         	3.76404110e-01	3.74135870e-05	1.09228180e-05	1.02615250e-04	0.00000000e+00
13.65          	1.75908430e-01	3.69839470e-05	1.15202720e-05	1.10261310e-04	0.00000000e+00
13.655         	7.62327980e-02	3.65549970e-05	1.21162720e-05	1.46191880e-04	0.00000000e+00
13.66          	1.77120500e-01	3.61267380e-05	1.27108160e-05	7.91930450e-05	0.00000000e+00
13.665         	1.27159930e-01	3.56991840e-05	1.33039020e-05	1.02605280e-04	0.00000000e+00
13.67          	7.02419140e-02	3.52723310e-05	1.38955240e-05	1.14955930e-04	0.00000000e+00
13.675         	1.83294540e-01	3.48461850e-05	1.44856790e-05	1.04301750e-04	0.00000000e+00
13.68          	1.91806960e-01	3.44207490e-05	1.50743630e-05	1.17878700e-04	0.00000000e+00
13.685         	1.58680090e-01	3.39960230e-05	1.56646450e-05	1.83087690e-04	0.00000000e+00
13.69          	2.94573410e-01	3.35720180e-05	1.62537780e-05	1.33269480e-04	0.00000000e+00
13.695         	7.08432520e-02	3.31487390e-05	1.68414230e-05	1.31629820e-04	0.00000000e+00
13.7           	1.98492720e-01	3.27261840e-05	1.74275740e-05	1.36866600e-04	0.00000000e+00
13.705         	4.03999690e-01	3.23043530e-05	1.80122250e-05	1.39878850e-04	0.00000000e+00
13.71          	2.60470170e-01	3.18832610e-05	1.85953800e-05	1.37416110e-04	0.00000000e+00
13.715         	1.15002220e-01	3.14629040e-05	1.91770290e-05	1.99392490e-04	0.00000000e+00
13.72          	9.07266160e-02	3.10432820e-05	1.97571670e-05	9.97613480e-05	0.00000000e+00
13.725         	1.35647520e-01	3.06244100e-05	2.03357980e-05	9.22959300e-05	0.00000000e+00
13.73          	1.20771380e-01	3.02062830e-05	2.09129130e-05	9.06898220e-05	0.00000000e+00
13.735         	1.44423830e-01	2.97889040e-05	2.14885070e-05	1.01022190e-04	0.00000000e+00
13.74          	1.30301770e-01	2.93722840e-05	2.20625820e-05	1.33669740e-04	0.00000000e+00
13.745         	1.72004440e-01	2.89564170e-05	2.26351280e-05	1.23523260e-04	0.00000000e+00
13.75          	2.30385490e-01	2.85413130e-05	2.32061470e-05	8.51298470e-05	0.00000000e+00
13.755         	8.31724570e-02	2.81269740e-05	2.37756330e-05	1.85891050e-04	0.00000000e+00
13.76          	1.57866140e-01	2.77134070e-05	2.43435860e-05	1.24412980e-04	0.00000000e+00
13.765         	1.24644100e-01	2.73006070e-05	2.49099950e-05	1.15366820e-04	0.00000000e+00
13.77          	1.04877800e-01	2.68885860e-05	2.54748660e-05	8.60938890e-05	0.00000000e+00
13.775         	2.71896850e-01	2.64773430e-05	2.60381890e-05	1.19201230e-04	0.00000000e+00
13.78          	7.54301040e-02	2.60668800e-05	2.65999620e-05	7.08681410e-05	0.00000000e+00
13.785         	1.36934310e-01	2.56572000e-05	2.71601790e-05	8.69884270e-05	0.00000000e+00
13.79          	1.97687040e-01	2.52483130e-05	2.77188450e-05	1.10648740e-04	0.00000000e+00
13.795         	8.77549130e-02	2.48402180e-05	2.82759500e-05	1.05033660e-04	0.00000000e+00
13.8           	1.38297780e-01	2.44329160e-05	2.88314920e-05	7.75526100e-05	0.00000000e+00
13.805         	2.40249800e-01	2.40264140e-05	2.93854680e-05	1.40080450e-04	0.00000000e+00
13.81          	4.32641200e-01	2.36207130e-05	2.99378750e-05	1.14320670e-04	0.00000000e+00
13.815         	1.58542840e-01	2.32158180e-05	3.04887090e-05	1.26563160e-04	0.00000000e+00
13.82          	2.88768960e-01	2.28117300e-05	3.10379680e-05	9.60782400e-05	0.00000000e+00
13.825         	1.79904560e-01	2.24084550e-05	3.15856480e-05	8.89401110e-05	0.00000000e+00
13.83          	1.34398810e-01	2.20059940e-05	3.21317460e-05	1.37956010e-04	0.00000000e+00
13.835         	1.61746510e-01	2.16043510e-05	3.26762600e-05	1.06062530e-04	0.00000000e+00
13.84          	1.05997700e-01	2.12035290e-05	3.32191850e-05	6.25298710e-05	0.00000000e+00
13.845         	1.15677490e-01	2.08035290e-05	3.37605160e-05	8.71494490e-05	0.00000000e+00
13.85          	1.52856440e-01	2.04043610e-05	3.43002590e-05	6.72644580e-05	0.00000000e+00
13.855         	1.26525870e-01	2.00060220e-05	3.48384030e-05	5.24105950e-05	0.00000000e+00
13.86          	2.46879990e-01	1.96085160e-05	3.53749470e-05	1.02525240e-04	0.00000000e+00
13.865         	4.00937950e-01	1.92118450e-05	3.59098830e-05	8.84412270e-05	0.00000000e+00
13.87          	4.16595410e-01	1.88160150e-05	3.64432160e-05	1.10302760e-04	0.00000000e+00
13.875         	2.82447770e-01	1.84210300e-05	3.69749450e-05	1.24993540e-04	0.00000000e+00
13.88          	1.15496010e-01	1.80268880e-05	3.75050550e-05	1.45665450e-04	0.00000000e+00
13.885         	1.48708180e-01	1.76335950e-05	3.80335530e-05	1.60254190e-04	0.00000000e+00
13.89          	1.11589950e-01	1.72411540e-05	3.85604340e-05	2.10562730e-04	0.00000000e+00
13.895         	2.89884420e-01	1.68495700e-05	3.90857000e-05	1.43932060e-04	0.00000000e+00
13.9           	1.37725720e-01	1.64588430e-05	3.96093390e-05	1.39090310e-04	0.00000000e+00
13.905         	3.70971410e-01	1.60689730e-05	4.01313460e-05	1.45776870e-04	0.00000000e+00
13.91          	1.08608210e-01	1.56799690e-05	4.06517280e-05	1.43655860e-04	0.00000000e+00
13.915         	2.20716760e-01	1.52918310e-05	4.11704780e-05	1.35646690e-04	0.00000000e+00
13.92          	1.46052560e-01	1.49045630e-05	4.16876010e-05	8.22055180e-05	0.00000000e+00
13.925         	7.60365680e-02	1.45181660e-05	4.22030770e-05	9.25331000e-05	0.00000000e+00
13.93          	1.16581890e-01	1.41326450e-05	4.27169220e-05	1.71600610e-04	0.00000000e+00
13.935         	9.87688750e-02	1.37480010e-05	4.32291210e-05	1.02245270e-04	0.00000000e+00
13.94          	8.31350320e-02	1.33642360e-05	4.37396690e-05	1.95126100e-04	0.00000000e+00
13.945         	7.07105380e-02	1.29813550e-05	4.42485730e-05	1.75574510e-04	0.00000000e+00
13.95          	4.75954960e-01	1.25993620e-05	4.47558340e-05	2.18765650e-04	0.00000000e+00
13.955         	1.34582790e-01	1.22182560e-05	4.52614380e-05	1.56911400e-04	0.00000000e+00
13.96          	1.39915190e-01	1.18380410e-05	4.57653860e-05	1.70313320e-04	0.00000000e+00
13.965         	2.54134550e-01	1.14587200e-05	4.62676700e-05	1.42156360e-04	0.00000000e+00
13.97          	1.93728690e-01	1.10802970e-05	4.67683030e-05	1.40606650e-04	0.00000000e+00
13.975         	1.31922320e-01	1.07027730e-05	4.72672710e-05	1.22721020e-04	0.00000000e+00
13.98          	8.04370520e-02	1.03261510e-05	4.77645720e-05	1.13636570e-04	0.00000000e+00
13.985         	2.69102470e-01	9.95043210e-06	4.82602000e-05	1.16666980e-04	0.00000000e+00
13.99          	3.73452180e-01	9.57562160e-06	4.87541610e-05	1.77648160e-04	0.00000000e+00
13.995         	1.01017980e-01	9.20172110e-06	4.92464500e-05	2.21912830e-04	0.00000000e+00
14             	1.49205540e-01	8.82873320e-06	4.97370660e-05	1.71300190e-04	0.00000000e+00
14.005         	8.27502300e-02	8.45666110e-06	5.02260100e-05	1.48876000e-04	0.00000000e+00
14.01          	1.61748040e-01	8.08550590e-06	5.07132700e-05	1.43055800e-04	0.00000000e+00
14.015         	1.21784230e-01	7.71527060e-06	5.11988480e-05	1.70994370e-04	0.00000000e+00
14.02          	6.83744900e-02	7.34595770e-06	5.16827400e-05	1.63553660e-04	0.00000000e+00
14.025         	1.48027720e-01	6.97756910e-06	5.21649390e-05	2.01174460e-04	0.00000000e+00
14.03          	1.17042590e-01	6.61010910e-06	5.26454610e-05	2.15602070e-04	0.00000000e+00
14.035         	2.49190680e-01	6.24357810e-06	5.31242810e-05	2.12086710e-04	0.00000000e+00
14.04          	1.12026810e-01	5.87812930e-06	5.36014190e-05	2.19820680e-04	0.00000000e+00
14.045         	7.29106990e-02	5.51543490e-06	5.40768510e-05	1.75194030e-04	0.00000000e+00
14.05          	1.85519280e-01	5.15661830e-06	5.45505890e-05	1.70406120e-04	0.00000000e+00
14.055         	2.58160490e-01	4.80479760e-06	5.50226280e-05	2.19951720e-04	0.00000000e+00
14.06          	3.47709080e-01	4.46805560e-06	5.54929660e-05	2.19765430e-04	0.00000000e+00
14.065         	2.20344710e-01	4.15050160e-06	5.59616060e-05	1.64446880e-04	0.00000000e+00
14.07          	3.62574900e-01	3.85240490e-06	5.64285300e-05	1.84304870e-04	0.00000000e+00
14.075         	1.62014850e-01	3.57891470e-06	5.68937550e-05	1.86514600e-04	0.00000000e+00
14.08          	1.58140230e-01	3.32869400e-06	5.73572670e-05	1.45627800e-04	0.00000000e+00
14.085         	1.54893580e-01	3.10201670e-06	5.78190580e-05	1.37730210e-04	0.00000000e+00
14.09          	1.10553970e-01	2.90341720e-06	5.82791460e-05	1.88447120e-04	0.00000000e+00
14.095         	8.95404740e-02	2.73105090e-06	5.87375080e-05	1.42878900e-04	0.00000000e+00
14.1           	2.87002670e-01	2.58495760e-06	5.91941550e-05	1.47494180e-04	0.00000000e+00
14.105         	8.47227100e-02	2.46562830e-06	5.96490840e-05	1.07739650e-04	0.00000000e+00
14.11          	1.05035650e-01	2.37346810e-06	6.01022980e-05	1.55811880e-04	0.00000000e+00
14.115         	1.18390240e-01	2.31236950e-06	6.05537840e-05	1.34376420e-04	0.00000000e+00
14.12          	7.09714870e-02	2.27907130e-06	6.10035350e-05	1.53366850e-04	0.00000000e+00
14.125         	1.35341300e-01	2.27355600e-06	6.14515640e-05	1.73434850e-04	0.00000000e+00
14.13          	2.40208470e-01	2.29583110e-06	6.18978710e-05	1.47775690e-04	0.00000000e+00
14.135         	2.91799970e-01	2.34580370e-06	6.23424440e-05	1.29168850e-04	0.00000000e+00
14.14          	1.96615190e-01	2.42523090e-06	6.27852740e-05	1.40879340e-04	0.00000000e+00
14.145         	4.46329760e-01	2.53359970e-06	6.32263740e-05	1.81553090e-04	0.00000000e+00
14.15          	3.12282370e-01	2.66879150e-06	6.36657390e-05	1.59201150e-04	0.00000000e+00
14.155         	1.75766860e-01	2.83022800e-06	6.41033660e-05	1.61514630e-04	0.00000000e+00
14.16          	8.44563600e-02	3.01731600e-06	6.45392620e-05	1.14819770e-04	0.00000000e+00
14.165         	7.37183220e-02	3.22934810e-06	6.49734030e-05	1.49789440e-04	0.00000000e+00
14.17          	2.38351720e-01	3.46765520e-06	6.54058050e-05	1.36028320e-04	0.00000000e+00
14.175         	1.90348240e-01	3.72931840e-06	6.58364630e-05	1.44710190e-04	0.00000000e+00
14.18          	1.99796440e-01	4.01206270e-06	6.62653750e-05	1.70397120e-04	0.00000000e+00
14.185         	9.37402210e-02	4.32542800e-06	6.66925390e-05	1.71247700e-04	0.00000000e+00
14.19          	2.46151380e-01	4.64518370e-06	6.71179620e-05	1.79194860e-04	0.00000000e+00
14.195         	1.11766670e-01	4.98077910e-06	6.75416280e-05	1.66620500e-04	0.00000000e+00
14.2           	1.27511450e-01	5.31537310e-06	6.79635320e-05	1.79274600e-04	0.00000000e+00
14.205         	1.18013690e-01	5.64896650e-06	6.83836950e-05	1.59354910e-04	0.00000000e+00
14.21          	2.29355940e-01	5.98155560e-06	6.88020980e-05	2.31599250e-04	0.00000000e+00
14.215         	1.54667220e-01	6.31313880e-06	6.92187430e-05	1.49656340e-04	0.00000000e+00
14.22          	1.46714540e-01	6.64371460e-06	6.96336290e-05	1.75955310e-04	0.00000000e+00
14.225         	1.62061800e-01	6.97328110e-06	7.00467550e-05	1.89269540e-04	0.00000000e+00
14.23          	1.07354550e-01	7.30183660e-06	7.04581190e-05	1.87345450e-04	0.00000000e+00
14.235         	3.21225790e-01	7.62937950e-06	7.08677210e-05	1.98149140e-04	0.00000000e+00
14.24          	1.90323170e-01	7.95590790e-06	7.12755580e-05	2.34547940e-04	0.00000000e+00
14.245         	1.24740670e-01	8.28141910e-06	7.16816220e-05	2.03323860e-04	0.00000000e+00
14.25          	1.15406070e-01	8.60591450e-06	7.20859330e-05	1.87612400e-04	0.00000000e+00
14.255         	6.99308950e-02	8.92938860e-06	7.24884640e-05	2.07886660e-04	0.00000000e+00
14.26          	9.35274460e-02	9.25184230e-06	7.28892300e-05	2.23965970e-04	0.00000000e+00
14.265         	1.70965460e-01	9.57327360e-06	7.32882270e-05	2.25095910e-04	0.00000000e+00
14.27          	1.22360900e-01	9.89368190e-06	7.36854610e-05	2.55147890e-04	0.00000000e+00
14.275         	2.03296130e-01	1.02130620e-05	7.40809080e-05	2.22520470e-04	0.00000000e+00
14.28          	8.76462110e-02	1.05314170e-05	7.44745940e-05	2.46725520e-04	0.00000000e+00
14.285         	3.29181330e-01	1.08487410e-05	7.48664900e-05	2.25304800e-04	0.00000000e+00
14.29          	1.13354570e-01	1.11650340e-05	7.52566150e-05	2.22537980e-04	0.00000000e+00
14.295         	1.89568970e-01	1.14802960e-05	7.56449630e-05	2.02046300e-04	0.00000000e+00
14.3           	1.37951640e-01	1.17945260e-05	7.60315430e-05	2.07939480e-04	0.00000000e+00
14.305         	3.99814690e-01	1.21077190e-05	7.64163270e-05	1.88398710e-04	0.00000000e+00
14.31          	1.93346740e-01	1.24198770e-05	7.67993440e-05	1.79091130e-04	0.00000000e+00
14.315         	1.60722420e-01	1.27309950e-05	7.71805650e-05	1.70943130e-04	0.00000000e+00
14.32          	1.25997920e-01	1.30410740e-05	7.75600070e-05	2.56067710e-04	0.00000000e+00
14.325         	8.64803710e-02	1.33501120e-05	7.79376670e-05	2.02419400e-04	0.00000000e+00
14.33          	1.11041780e-01	1.36581100e-05	7.83135530e-05	2.64764570e-04	0.00000000e+00
14.335         	1.08585220e-01	1.39650620e-05	7.86876360e-05	2.51576390e-04	0.00000000e+00
14.34          	1.01293690e-01	1.42709690e-05	7.90599370e-05	2.30593930e-04	0.00000000e+00
14.345         	1.42809990e-01	1.45758320e-05	7.94304620e-05	2.12856480e-04	0.00000000e+00
14.35          	2.61601450e-01	1.48796450e-05	7.97991820e-05	1.79100010e-04	0.00000000e+00
14.355         	1.01634100e-01	1.51824090e-05	8.01661170e-05	2.02158270e-04	0.00000000e+00
14.36          	2.50563150e-01	1.54841260e-05	8.05312720e-05	1.82392370e-04	0.00000000e+00
14.365         	3.85802700e-01	1.57847890e-05	8.08946310e-05	1.40384810e-04	0.00000000e+00
14.37          	1.99923070e-01	1.60843990e-05	8.12561950e-05	1.27460410e-04	0.00000000e+00
14.375         	1.50655740e-01	1.63829530e-05	8.16159570e-05	1.54102640e-04	0.00000000e+00
14.38          	1.74564610e-01	1.66804530e-05	8.19739300e-05	1.73846260e-04	0.00000000e+00
14.385         	8.05077280e-02	1.69768970e-05	8.23301120e-05	1.92134280e-04	0.00000000e+00
14.39          	2.23112660e-01	1.72722850e-05	8.26845090e-05	1.17872310e-04	0.00000000e+00
14.395         	9.55791810e-02	1.75666110e-05	8.30370940e-05	1.19627430e-04	0.00000000e+00
14.4           	3.31616300e-01	1.78598800e-05	8.33878970e-05	1.56763700e-04	0.00000000e+00
14.405         	1.12051550e-01	1.81520860e-05	8.37368970e-05	1.71845410e-04	0.00000000e+00
14.41          	2.46209630e-01	1.84432280e-05	8.40840880e-05	1.57725920e-04	0.00000000e+00
14.415         	9.63857280e-02	1.87333090e-05	8.44294960e-05	1.36384070e-04	0.00000000e+00
14.42          	1.78741850e-01	1.90223230e-05	8.47730910e-05	1.17787240e-04	0.00000000e+00
14.425         	1.52451850e-01	1.93102740e-05	8.51149010e-05	1.54098760e-04	0.00000000e+00
14.43          	4.12198610e-01	1.95971580e-05	8.54549060e-05	1.20315670e-04	0.00000000e+00
14.435         	1.37442560e-01	1.98829730e-05	8.57931080e-05	1.42457060e-04	0.00000000e+00
14.44          	6.18806890e-02	2.01677190e-05	8.61295090e-05	1.50308130e-04	0.00000000e+00
14.445         	1.15600160e-01	2.04513950e-05	8.64641070e-05	1.20753380e-04	0.00000000e+00
14.45          	7.89567800e-02	2.07339970e-05	8.67968930e-05	1.47532860e-04	0.00000000e+00
14.455         	8.88091210e-02	2.10155320e-05	8.71278930e-05	1.13897330e-04	0.00000000e+00
14.46          	1.25285640e-01	2.12959930e-05	8.74570850e-05	1.22589160e-04	0.00000000e+00
14.465         	1.87351930e-01	2.15753770e-05	8.77844610e-05	1.34153390e-04	0.00000000e+00
14.47          	1.47782270e-01	2.18536910e-05	8.81100510e-05	1.05433370e-04	0.00000000e+00
14.475         	2.93224780e-01	2.21309250e-05	8.84338200e-05	9.24239540e-05	0.00000000e+00
14.48          	2.11626100e-01	2.24070860e-05	8.87558000e-05	1.10815690e-04	0.00000000e+00
14.485         	2.07020920e-01	2.26821660e-05	8.90759600e-05	1.32053580e-04	0.00000000e+00
14.49          	1.24848840e-01	2.29561710e-05	8.93943290e-05	1.23575660e-04	0.00000000e+00
14.495         	1.08587450e-01	2.32290960e-05	8.97108880e-05	1.42872880e-04	0.00000000e+00
14.5           	1.95624190e-01	2.35009400e-05	9.00256390e-05	1.33078610e-04	0.00000000e+00
14.505         	1.00020920e-01	2.37717030e-05	9.03385820e-05	1.23093650e-04	0.00000000e+00
14.51          	2.81198800e-01	2.40413820e-05	9.06497080e-05	9.61598440e-05	0.00000000e+00
14.515         	1.59378130e-01	2.43099820e-05	9.09590450e-05	9.95032050e-05	0.00000000e+00
14.52          	8.88960500e-02	2.45774980e-05	9.12665700e-05	1.23588420e-04	0.00000000e+00
14.525         	1.83926260e-01	2.48439300e-05	9.15722860e-05	1.05500010e-04	0.00000000e+00
14.53          	1.54989670e-01	2.51092730e-05	9.18761830e-05	1.08848820e-04	0.00000000e+00
14.535         	8.71666590e-02	2.53735330e-05	9.21782800e-05	9.78233570e-05	0.00000000e+00
14.54          	1.24866490e-01	2.56367100e-05	9.24785820e-05	8.40438410e-05	0.00000000e+00
14.545         	1.24610130e-01	2.58987950e-05	9.27770590e-05	9.41348480e-05	0.00000000e+00
14.55          	9.27473630e-02	2.61597970e-05	9.30737440e-05	8.40292670e-05	0.00000000e+00
14.555         	1.58810480e-01	2.64197060e-05	9.33686050e-05	7.95644650e-05	0.00000000e+00
14.56          	2.34980580e-01	2.66785270e-05	9.36616620e-05	8.70522370e-05	0.00000000e+00
14.565         	7.66673990e-02	2.69362620e-05	9.39529250e-05	1.00176910e-04	0.00000000e+00
14.57          	1.27750470e-01	2.71929050e-05	9.42423730e-05	1.31920830e-04	0.00000000e+00
14.575         	1.50682170e-01	2.74484530e-05	9.45299990e-05	9.58591070e-05	0.00000000e+00
14.58          	1.94999080e-01	2.77029150e-05	9.48158350e-05	1.02273620e-04	0.00000000e+00
14.585         	1.08543510e-01	2.79562800e-05	9.50998470e-05	7.81921640e-05	0.00000000e+00
14.59          	1.01398530e-01	2.82085570e-05	9.53820680e-05	1.51452740e-04	0.00000000e+00
14.595         	1.03741550e-01	2.84597350e-05	9.56624630e-05	5.75543040e-05	0.00000000e+00
14.6           	9.58205580e-02	2.87098250e-05	9.59410690e-05	7.42539430e-05	0.00000000e+00
14.605         	2.03004930e-01	2.89588160e-05	9.62178490e-05	7.24209030e-05	0.00000000e+00
14.61          	1.45919500e-01	2.92067130e-05	9.64928280e-05	8.99898390e-05	0.00000000e+00
14.615         	1.26415730e-01	2.94535160e-05	9.67660010e-05	1.06861470e-04	0.00000000e+00
14.62          	1.76693840e-01	2.96992230e-05	9.70373680e-05	1.24685900e-04	0.00000000e+00
14.625         	2.60516400e-01	2.99438340e-05	9.73069280e-05	7.86348860e-05	0.00000000e+00
14.63          	1.04515610e-01	3.01873510e-05	9.75746940e-05	9.29347930e-05	0.00000000e+00
14.635         	1.45622440e-01	3.04297660e-05	9.78406330e-05	1.06036250e-04	0.00000000e+00
14.64          	4.99837850e-01	3.06710880e-05	9.81047830e-05	9.43054680e-05	0.00000000e+00
14.645         	7.89058510e-02	3.09113100e-05	9.83671220e-05	8.09040990e-05	0.00000000e+00
14.65          	7.49397020e-02	3.11504340e-05	9.86276520e-05	8.86603210e-05	0.00000000e+00
14.655         	1.32829300e-01	3.13884580e-05	9.88863770e-05	9.21478640e-05	0.00000000e+00
14.66          	3.84497220e-01	3.16253830e-05	9.91432970e-05	6.55544110e-05	0.00000000e+00
14.665         	2.09051500e-01	3.18612090e-05	9.93984120e-05	8.34285470e-05	0.00000000e+00
14.67          	3.35872290e-01	3.20959310e-05	9.96517110e-05	7.13603580e-05	0.00000000e+00
14.675         	1.54182730e-01	3.23295550e-05	9.99032140e-05	1.11565700e-04	0.00000000e+00
14.68          	1.03578930e-01	3.25620840e-05	1.00152930e-04	1.51163250e-04	0.00000000e+00
14.685         	1.54137790e-01	3.27935100e-05	1.00400830e-04	1.91207990e-04	0.00000000e+00
14.69          	9.41209650e-02	3.30238300e-05	1.00646920e-04	1.17578120e-04	0.00000000e+00
14.695         	1.26621840e-01	3.32530560e-05	1.00891230e-04	1.46171020e-04	0.00000000e+00
14.7           	2.65207470e-01	3.34811780e-05	1.01133720e-04	1.40349800e-04	0.00000000e+00
14.705         	1.91570220e-01	3.37081930e-05	1.01374410e-04	1.17310640e-04	0.00000000e+00
14.71          	1.13461000e-01	3.39341140e-05	1.01613310e-04	1.11974820e-04	0.00000000e+00
14.715         	3.85027060e-01	3.41589300e-05	1.01850410e-04	1.57316490e-04	0.00000000e+00
14.72          	6.72962090e-02	3.43826440e-05	1.02085700e-04	1.86500190e-04	0.00000000e+00
14.725         	1.36536600e-01	3.46052500e-05	1.02319190e-04	1.36379730e-04	0.00000000e+00
14.73          	9.88314240e-02	3.48267610e-05	1.02550890e-04	1.27871530e-04	0.00000000e+00
14.735         	3.26341140e-01	3.50471680e-05	1.02780800e-04	1.83794550e-04	0.00000000e+00
14.74          	2.25947510e-01	3.52664700e-05	1.03008900e-04	1.82777110e-04	0.00000000e+00
14.745         	2.59544270e-01	3.54846660e-05	1.03235200e-04	2.10259310e-04	0.00000000e+00
14.75          	2.19507750e-01	3.57017610e-05	1.03459710e-04	1.43731910e-04	0.00000000e+00
14.755         	1.32230450e-01	3.59177580e-05	1.03682440e-04	1.52725160e-04	0.00000000e+00
14.76          	1.29360390e-01	3.61326450e-05	1.03903350e-04	1.43836620e-04	0.00000000e+00
14.765         	2.70220400e-01	3.63464300e-05	1.04122480e-04	1.94592700e-04	0.00000000e+00
14.77          	2.39426980e-01	3.65591180e-05	1.04339830e-04	1.21768660e-04	0.00000000e+00
14.775         	7.90601060e-02	3.67706950e-05	1.04555370e-04	1.64465400e-04	0.00000000e+00
14.78          	3.15218040e-01	3.69811700e-05	1.04769120e-04	1.89404030e-04	0.00000000e+00
14.785         	2.62031220e-01	3.71905470e-05	1.04981100e-04	1.63707250e-04	0.00000000e+00
14.79          	2.38915130e-01	3.73988140e-05	1.05191270e-04	1.49976590e-04	0.00000000e+00
14.795         	2.42175990e-01	3.76059800e-05	1.05399650e-04	1.59848760e-04	0.00000000e+00
14.8           	2.08268540e-01	3.78120420e-05	1.05606250e-04	1.79030020e-04	0.00000000e+00
14.805         	5.08897940e-01	3.80170020e-05	1.05811070e-04	1.33316590e-04	0.00000000e+00
14.81          	1.39202490e-01	3.82208590e-05	1.06014100e-04	1.78909060e-04	0.00000000e+00
14.815         	2.36529510e-01	3.84236120e-05	1.06215340e-04	1.21783430e-04	0.00000000e+00
14.82          	9.40283140e-02	3.86252630e-05	1.06414800e-04	1.56774900e-04	0.00000000e+00
14.825         	2.98071890e-01	3.88258150e-05	1.06612490e-04	1.31982020e-04	0.00000000e+00
14.83          	1.83272830e-01	3.90252610e-05	1.06808390e-04	1.08754950e-04	0.00000000e+00
14.835         	1.48853230e-01	3.92235990e-05	1.07002500e-04	1.52478460e-04	0.00000000e+00
14.84          	1.49063590e-01	3.94208420e-05	1.07194840e-04	1.30667280e-04	0.00000000e+00
14.845         	7.81781520e-02	3.96169760e-05	1.07385390e-04	1.21575050e-04	0.00000000e+00
14.85          	1.46872340e-01	3.98120100e-05	1.07574170e-04	1.66048050e-04	0.00000000e+00
14.855         	1.39503180e-01	4.00059430e-05	1.07761170e-04	1.20264960e-04	0.00000000e+00
14.86          	3.18889550e-01	4.01987790e-05	1.07946410e-04	1.33753650e-04	0.00000000e+00
14.865         	1.05841160e-01	4.03905100e-05	1.08129870e-04	9.14257650e-05	0.00000000e+00
14.87          	2.06508850e-01	4.05811390e-05	1.08311550e-04	1.17100370e-04	0.00000000e+00
14.875         	6.67670790e-02	4.07706670e-05	1.08491460e-04	1.06099700e-04	0.00000000e+00
14.88          	3.93613920e-01	4.09590940e-05	1.08669600e-04	1.37613400e-04	0.00000000e+00
14.885         	4.51224340e-01	4.11464200e-05	1.08845970e-04	1.57274430e-04	0.00000000e+00
14.89          	2.55577330e-01	4.13326460e-05	1.09020570e-04	1.60744340e-04	0.00000000e+00
14.895         	3.77485690e-01	4.15177720e-05	1.09193400e-04	1.25468460e-04	0.00000000e+00
14.9           	1.80767930e-01	4.17017980e-05	1.09364470e-04	1.31360960e-04	0.00000000e+00
14.905         	1.61865900e-01	4.18847250e-05	1.09533770e-04	1.43064280e-04	0.00000000e+00
14.91          	2.69380770e-01	4.20665530e-05	1.09701310e-04	1.26469670e-04	0.00000000e+00
14.915         	1.74262350e-01	4.22472820e-05	1.09867090e-04	1.62131120e-04	0.00000000e+00
14.92          	2.60892860e-01	4.24269080e-05	1.10031090e-04	1.49568250e-04	0.00000000e+00
14.925         	1.47581940e-01	4.26054440e-05	1.10193360e-04	9.25494190e-05	0.00000000e+00
14.93          	1.26163220e-01	4.27828800e-05	1.10353860e-04	9.92481470e-05	0.00000000e+00
14.935         	7.93953650e-02	4.29592140e-05	1.10512590e-04	9.54060120e-05	0.00000000e+00
14.94          	1.39476090e-01	4.31344590e-05	1.10669590e-04	8.55377690e-05	0.00000000e+00
14.945         	1.08726000e-01	4.33086050e-05	1.10824820e-04	7.64156630e-05	0.00000000e+00
14.95          	1.49945740e-01	4.34816550e-05	1.10978310e-04	1.25225410e-04	0.00000000e+00
14.955         	2.12505880e-01	4.36536040e-05	1.11130020e-04	7.37434750e-05	0.00000000e+00
14.96          	7.98870190e-02	4.38244610e-05	1.11280000e-04	7.53775790e-05	0.00000000e+00
14.965         	1.92237890e-01	4.39942300e-05	1.11428250e-04	7.95502280e-05	0.00000000e+00
14.97          	8.24475240e-02	4.41628960e-05	1.11574720e-04	6.46141040e-05	0.00000000e+00
14.975         	9.21316080e-02	4.43304720e-05	1.11719460e-04	8.10073490e-05	0.00000000e+00
14.98          	9.71258840e-02	4.44969550e-05	1.11862460e-04	7.96703140e-05	0.00000000e+00
14.985         	7.11027250e-02	4.46623520e-05	1.12003730e-04	9.32456550e-05	0.00000000e+00
14.99          	2.55496870e-01	4.48266480e-05	1.12143240e-04	1.19049300e-04	0.00000000e+00
14.995         	1.49743210e-01	4.49898600e-05	1.12281030e-04	1.27344940e-04	0.00000000e+00
15             	9.49987540e-02	4.51519780e-05	1.12417070e-04	6.86041350e-05	0.00000000e+00
15.005         	2.43153490e-01	4.53130060e-05	1.12551380e-04	7.92254820e-05	0.00000000e+00
15.01          	1.46420440e-01	4.54729380e-05	1.12683940e-04	9.47593730e-05	0.00000000e+00
15.015         	7.54989580e-02	4.56317900e-05	1.12814790e-04	7.54078410e-05	0.00000000e+00
15.02          	9.87055160e-02	4.57895450e-05	1.12943880e-04	9.54345940e-05	0.00000000e+00
15.025         	1.14016090e-01	4.59462160e-05	1.13071260e-04	1.04309800e-04	0.00000000e+00
15.03          	3.20529210e-01	4.61018000e-05	1.13196910e-04	1.01252330e-04	0.00000000e+00
15.035         	8.05913350e-02	4.62562980e-05	1.13320840e-04	1.48327890e-04	0.00000000e+00
15.04          	1.20752690e-01	4.64097160e-05	1.13443060e-04	8.87896650e-05	0.00000000e+00
15.045         	1.44383890e-01	4.65620440e-05	1.13563550e-04	1.34262260e-04	0.00000000e+00
15.05          	1.12965000e-01	4.67132820e-05	1.13682300e-04	1.00332210e-04	0.00000000e+00
15.055         	2.43909550e-01	4.68634390e-05	1.13799340e-04	9.16652860e-05	0.00000000e+00
15.06          	8.48474920e-02	4.70125140e-05	1.13914670e-04	9.08558550e-05	0.00000000e+00
15.065         	3.11006070e-01	4.71605070e-05	1.14028280e-04	1.27076680e-04	0.00000000e+00
15.07          	1.52555900e-01	4.73074240e-05	1.14140200e-04	1.35372680e-04	0.00000000e+00
15.075         	1.96301740e-01	4.74532500e-05	1.14250380e-04	1.09795470e-04	0.00000000e+00
15.08          	9.18477970e-02	4.75980050e-05	1.14358870e-04	9.24635320e-05	0.00000000e+00
15.085         	7.02056880e-02	4.77416770e-05	1.14465650e-04	1.21432910e-04	0.00000000e+00
15.09          	9.91152980e-02	4.78842640e-05	1.14570710e-04	1.30384640e-04	0.00000000e+00
15.095         	1.29360820e-01	4.80257820e-05	1.14674090e-04	1.18632120e-04	0.00000000e+00
15.1           	1.48902750e-01	4.81662150e-05	1.14775740e-04	1.29882400e-04	0.00000000e+00
15.105         	1.88326700e-01	4.83055800e-05	1.14875720e-04	1.04188910e-04	0.00000000e+00
15.11          	9.57624030e-02	4.84438670e-05	1.14973990e-04	1.73897170e-04	0.00000000e+00
15.115         	1.47611440e-01	4.85810790e-05	1.15070570e-04	1.19753600e-04	0.00000000e+00
15.12          	1.16699270e-01	4.87172100e-05	1.15165440e-04	1.38085340e-04	0.00000000e+00
15.125         	2.76265730e-01	4.88522780e-05	1.15258640e-04	1.15086790e-04	0.00000000e+00
15.13          	1.65912650e-01	4.89862660e-05	1.15350130e-04	1.50144100e-04	0.00000000e+00
15.135         	9.13879710e-02	4.91191860e-05	1.15439940e-04	1.46559320e-04	0.00000000e+00
15.14          	7.74692730e-02	4.92510420e-05	1.15528080e-04	1.02465620e-04	0.00000000e+00
15.145         	1.25486080e-01	4.93818250e-05	1.15614530e-04	1.57827890e-04	0.00000000e+00
15.15          	1.33775280e-01	4.95115380e-05	1.15699300e-04	2.21290550e-04	0.00000000e+00
15.155         	1.83813060e-01	4.96401780e-05	1.15782370e-04	1.10418310e-04	0.00000000e+00
15.16          	8.22779380e-02	4.97677550e-05	1.15863780e-04	1.12147450e-04	0.00000000e+00
15.165         	1.18068310e-01	4.98942680e-05	1.15943520e-04	9.25064380e-05	0.00000000e+00
15.17          	1.44266900e-01	5.00197160e-05	1.16021580e-04	1.24388380e-04	0.00000000e+00
15.175         	1.37681660e-01	5.01441070e-05	1.16097990e-04	1.05696240e-04	0.00000000e+00
15.18          	2.33234280e-01	5.02674250e-05	1.16172710e-04	9.27101580e-05	0.00000000e+00
15.185         	8.94971440e-02	5.03896900e-05	1.16245780e-04	1.55585590e-04	0.00000000e+00
15.19          	8.93049550e-02	5.05108850e-05	1.16317170e-04	9.48020810e-05	0.00000000e+00
15.195         	9.85872470e-02	5.06310240e-05	1.16386910e-04	1.40989090e-04	0.00000000e+00
15.2           	1.80608010e-01	5.07501040e-05	1.16454990e-04	1.15436550e-04	0.00000000e+00
15.205         	1.18807420e-01	5.08681280e-05	1.16521410e-04	1.29143870e-04	0.00000000e+00
15.21          	1.67142830e-01	5.09851000e-05	1.16586200e-04	1.11738190e-04	0.00000000e+00
15.215         	1.18552300e-01	5.11010080e-05	1.16649310e-04	1.41141640e-04	0.00000000e+00
15.22          	1.54602220e-01	5.12158690e-05	1.16710790e-04	1.00781630e-04	0.00000000e+00
15.225         	1.10293530e-01	5.13296740e-05	1.16770610e-04	1.29652400e-04	0.00000000e+00
15.23          	1.26490030e-01	5.14424250e-05	1.16828790e-04	1.08787430e-04	0.00000000e+00
15.235         	2.63149110e-01	5.15541190e-05	1.16885320e-04	7.32136130e-05	0.00000000e+00
15.24          	3.73157250e-01	5.16647670e-05	1.16940210e-04	1.30127880e-04	0.00000000e+00
15.245         	9.66937150e-02	5.17743670e-05	1.16993470e-04	1.02902920e-04	0.00000000e+00
15.25          	1.41265450e-01	5.18829250e-05	1.17045110e-04	1.74639440e-04	0.00000000e+00
15.255         	1.13882930e-01	5.19904270e-05	1.17095090e-04	1.44116820e-04	0.00000000e+00
15.26          	1.41674600e-01	5.20968860e-05	1.17143450e-04	1.40220760e-04	0.00000000e+00
15.265         	1.71108220e-01	5.22023010e-05	1.17190190e-04	1.50477870e-04	0.00000000e+00
15.27          	7.24149990e-02	5.23066800e-05	1.17235310e-04	8.53295090e-05	0.00000000e+00
15.275         	3.13532610e-01	5.24100120e-05	1.17278810e-04	8.85578860e-05	0.00000000e+00
15.28          	7.22341110e-02	5.25123020e-05	1.17320680e-04	7.06218470e-05	0.00000000e+00
15.285         	2.63162850e-01	5.26135460e-05	1.17360920e-04	1.50210730e-04	0.00000000e+00
15.29          	8.07588200e-02	5.27137620e-05	1.17399570e-04	1.03721390e-04	0.00000000e+00
15.295         	1.23299510e-01	5.28129370e-05	1.17436600e-04	6.82570520e-05	0.00000000e+00
15.3           	1.46112800e-01	5.29110760e-05	1.17472010e-04	7.54315610e-05	0.00000000e+00
15.305         	6.89372210e-02	5.30081790e-05	1.17505820e-04	7.24962360e-05	0.00000000e+00
15.31          	1.86868230e-01	5.31042490e-05	1.17538030e-04	1.01007580e-04	0.00000000e+00
15.315         	9.07180550e-02	5.31992800e-05	1.17568620e-04	7.23743430e-05	0.00000000e+00
15.32          	2.24747630e-01	5.32932840e-05	1.17597620e-04	9.10627850e-05	0.00000000e+00
15.325         	1.26528560e-01	5.33862600e-05	1.17625030e-04	7.45023520e-05	0.00000000e+00
15.33          	1.22614440e-01	5.34782140e-05	1.17650860e-04	7.67057380e-05	0.00000000e+00
15.335         	1.94802260e-01	5.35691370e-05	1.17675090e-04	8.44644490e-05	0.00000000e+00
15.34          	5.34532210e-02	5.36590260e-05	1.17697720e-04	1.33435820e-04	0.00000000e+00
15.345         	1.12758090e-01	5.37478950e-05	1.17718770e-04	1.09592220e-04	0.00000000e+00
15.35          	1.43958860e-01	5.38357420e-05	1.17738240e-04	6.47245940e-05	0.00000000e+00
15.355         	1.15496760e-01	5.39225730e-05	1.17756140e-04	7.04123020e-05	0.00000000e+00
15.36          	1.75265800e-01	5.40083800e-05	1.17772460e-04	1.09051550e-04	0.00000000e+00
15.365         	1.45498160e-01	5.40931660e-05	1.17787200e-04	7.83298630e-05	0.00000000e+00
15.37          	1.67650710e-01	5.41769280e-05	1.17800360e-04	1.66797450e-04	0.00000000e+00
15.375         	1.44825720e-01	5.42596840e-05	1.17811970e-04	6.62015020e-05	0.00000000e+00
15.38          	1.37912470e-01	5.43414160e-05	1.17821990e-04	8.07440400e-05	0.00000000e+00
15.385         	9.40742270e-02	5.44221430e-05	1.17830480e-04	4.83320080e-05	0.00000000e+00
15.39          	3.26093760e-01	5.45018490e-05	1.17837380e-04	7.11199170e-05	0.00000000e+00
15.395         	2.71699600e-01	5.45805470e-05	1.17842730e-04	6.56462220e-05	0.00000000e+00
15.4           	1.29771690e-01	5.46582370e-05	1.17846530e-04	8.08583550e-05	0.00000000e+00
15.405         	1.49996790e-01	5.47349250e-05	1.17848790e-04	1.21847610e-04	0.00000000e+00
15.41          	1.87160920e-01	5.48106030e-05	1.17849500e-04	7.44303250e-05	0.00000000e+00
15.415         	1.92353340e-01	5.48852750e-05	1.17848660e-04	4.47177040e-05	0.00000000e+00
15.42          	2.87096860e-01	5.49589360e-05	1.17846260e-04	5.24464860e-05	0.00000000e+00
15.425         	9.53181670e-02	5.50316050e-05	1.17842350e-04	8.34234130e-05	0.00000000e+00
15.43          	1.16658440e-01	5.51032640e-05	1.17836880e-04	6.64951650e-05	0.00000000e+00
15.435         	1.02548030e-01	5.51739340e-05	1.17829890e-04	8.77322760e-05	0.00000000e+00
15.44          	2.18145710e-01	5.52436030e-05	1.17821370e-04	1.12713270e-04	0.00000000e+00
15.445         	7.53698940e-02	5.53122680e-05	1.17811310e-04	7.80715330e-05	0.00000000e+00
15.45          	3.15858900e-01	5.53799490e-05	1.17799740e-04	1.03191950e-04	0.00000000e+00
15.455         	9.85976770e-02	5.54466270e-05	1.17786630e-04	8.31600770e-05	0.00000000e+00
15.46          	7.07223830e-02	5.55123170e-05	1.17772020e-04	9.99670680e-05	0.00000000e+00
15.465         	3.86295470e-01	5.55770250e-05	1.17755900e-04	8.24612630e-05	0.00000000e+00
15.47          	1.78008190e-01	5.56407330e-05	1.17738250e-04	8.50311070e-05	0.00000000e+00
15.475         	1.61832000e-01	5.57034640e-05	1.17719110e-04	7.90646460e-05	0.00000000e+00
15.48          	4.14148650e-01	5.57652000e-05	1.17698440e-04	1.01898710e-04	0.00000000e+00
15.485         	1.78636230e-01	5.58259550e-05	1.17676280e-04	9.03290620e-05	0.00000000e+00
15.49          	1.81516330e-01	5.58857350e-05	1.17652630e-04	6.89477060e-05	0.00000000e+00
15.495         	1.42390870e-01	5.59445240e-05	1.17627470e-04	1.22836350e-04	0.00000000e+00
15.5           	2.65056050e-01	5.60023440e-05	1.17600830e-04	8.34407570e-05	0.00000000e+00
15.505         	1.67797690e-01	5.60591820e-05	1.17572700e-04	1.03928300e-04	0.00000000e+00
15.51          	1.93803880e-01	5.61150440e-05	1.17543080e-04	8.40807540e-05	0.00000000e+00
15.515         	3.72960460e-01	5.61699250e-05	1.17511960e-04	5.47692320e-05	0.00000000e+00
15.52          	7.81969620e-02	5.62238440e-05	1.17479380e-04	6.95308530e-05	0.00000000e+00
15.525         	3.00090080e-01	5.62767880e-05	1.17445320e-04	5.07739810e-05	0.00000000e+00
15.53          	2.49019520e-01	5.63287570e-05	1.17409770e-04	5.60951040e-05	0.00000000e+00
15.535         	1.60033250e-01	5.63797610e-05	1.17372760e-04	9.16601760e-05	0.00000000e+00
15.54          	2.20849840e-01	5.64298010e-05	1.17334290e-04	7.41605310e-05	0.00000000e+00
15.545         	4.18602030e-01	5.64788760e-05	1.17294350e-04	7.90370070e-05	0.00000000e+00
15.55          	1.15358110e-01	5.65269960e-05	1.17252960e-04	9.70001000e-05	0.00000000e+00
15.555         	3.10758050e-01	5.65741500e-05	1.17210110e-04	1.05615130e-04	0.00000000e+00
15.56          	1.12534660e-01	5.66203440e-05	1.17165810e-04	8.08909970e-05	0.00000000e+00
15.565         	1.50712430e-01	5.66655740e-05	1.17120030e-04	1.11613410e-04	0.00000000e+00
15.57          	1.39292320e-01	5.67098580e-05	1.17072840e-04	1.20874490e-04	0.00000000e+00
15.575         	9.97557400e-02	5.67531780e-05	1.17024180e-04	1.21722870e-04	0.00000000e+00
15.58          	1.01998200e-01	5.67955500e-05	1.16974080e-04	1.62739250e-04	0.00000000e+00
15.585         	1.34297390e-01	5.68369720e-05	1.16922560e-04	9.15248320e-05	0.00000000e+00
15.59          	5.42620250e-02	5.68774450e-05	1.16869600e-04	1.04228320e-04	0.00000000e+00
15.595         	4.54048330e-02	5.69169710e-05	1.16815210e-04	6.50595000e-05	0.00000000e+00
15.6           	1.38601230e-01	5.69555590e-05	1.16759400e-04	8.72300440e-05	0.00000000e+00
15.605         	1.42116340e-01	5.69931980e-05	1.16702170e-04	1.21312120e-04	0.00000000e+00
15.61          	2.54154900e-01	5.70298880e-05	1.16643500e-04	8.42382220e-05	0.00000000e+00
15.615         	1.32854370e-01	5.70656470e-05	1.16583430e-04	1.20440380e-04	0.00000000e+00
15.62          	1.55972690e-01	5.71004600e-05	1.16521930e-04	7.59353470e-05	0.00000000e+00
15.625         	1.49107160e-01	5.71343380e-05	1.16459030e-04	6.49437010e-05	0.00000000e+00
15.63          	2.00808520e-01	5.71672900e-05	1.16394740e-04	7.43228960e-05	0.00000000e+00
15.635         	1.92053950e-01	5.71992980e-05	1.16329030e-04	1.00606690e-04	0.00000000e+00
15.64          	1.28685340e-01	5.72303790e-05	1.16261920e-04	1.12919740e-04	0.00000000e+00
15.645         	2.57162010e-01	5.72605310e-05	1.16193430e-04	7.83229440e-05	0.00000000e+00
15.65          	2.81582210e-01	5.72897620e-05	1.16123550e-04	1.14234990e-04	0.00000000e+00
15.655         	1.56797840e-01	5.73180640e-05	1.16052280e-04	5.59674540e-05	0.00000000e+00
15.66          	1.12862630e-01	5.73454400e-05	1.15979620e-04	3.99780100e-05	0.00000000e+00
15.665         	2.11823390e-01	5.73718940e-05	1.15905580e-04	6.37041630e-05	0.00000000e+00
15.67          	4.22047840e-01	5.73974220e-05	1.15830140e-04	6.28510660e-05	0.00000000e+00
15.675         	1.74727640e-01	5.74220350e-05	1.15753350e-04	9.35220570e-05	0.00000000e+00
15.68          	1.77221360e-01	5.74457340e-05	1.15675180e-04	7.12170340e-05	0.00000000e+00
15.685         	1.80146000e-01	5.74685190e-05	1.15595660e-04	9.16735110e-05	0.00000000e+00
15.69          	1.31755370e-01	5.74903920e-05	1.15514770e-04	8.44838270e-05	0.00000000e+00
15.695         	2.55344740e-01	5.75113600e-05	1.15432530e-04	8.53741630e-05	0.00000000e+00
15.7           	1.13308270e-01	5.75314150e-05	1.15348930e-04	1.06463410e-04	0.00000000e+00
15.705         	8.06676730e-02	5.75505560e-05	1.15263960e-04	8.59740320e-05	0.00000000e+00
15.71          	1.22556210e-01	5.75688020e-05	1.15177670e-04	5.52713010e-05	0.00000000e+00
15.715         	7.01262700e-02	5.75861360e-05	1.15090010e-04	7.39432760e-05	0.00000000e+00
15.72          	9.40644370e-02	5.76025720e-05	1.15001020e-04	8.61612020e-05	0.00000000e+00
15.725         	1.43362990e-01	5.76181170e-05	1.14910710e-04	7.41481190e-05	0.00000000e+00
15.73          	1.38602040e-01	5.76327600e-05	1.14819060e-04	4.80651660e-05	0.00000000e+00
15.735         	1.26955910e-01	5.76465070e-05	1.14726070e-04	6.56764680e-05	0.00000000e+00
15.74          	1.30729680e-01	5.76593540e-05	1.14631750e-04	1.10268920e-04	0.00000000e+00
15.745         	2.79591010e-01	5.76713130e-05	1.14536110e-04	5.39102220e-05	0.00000000e+00
15.75          	1.65328440e-01	5.76823920e-05	1.14439180e-04	5.49560630e-05	0.00000000e+00
15.755         	1.39386410e-01	5.76925720e-05	1.14340900e-04	1.65117500e-04	0.00000000e+00
15.76          	2.59618980e-01	5.77018710e-05	1.14241330e-04	7.47704340e-05	0.00000000e+00
15.765         	1.29104890e-01	5.77102930e-05	1.14140460e-04	4.17346220e-05	0.00000000e+00
15.77          	1.65714130e-01	5.77178240e-05	1.14038270e-04	7.07119560e-05	0.00000000e+00
15.775         	2.85663670e-01	5.77244850e-05	1.13934800e-04	7.36741670e-05	0.00000000e+00
15.78          	2.91129160e-01	5.77302650e-05	1.13830030e-04	6.62703970e-05	0.00000000e+00
15.785         	2.45565750e-01	5.77351620e-05	1.13723950e-04	9.43422540e-05	0.00000000e+00
15.79          	1.24545130e-01	5.77391960e-05	1.13616610e-04	9.05511840e-05	0.00000000e+00
15.795         	1.25975840e-01	5.77423570e-05	1.13507970e-04	6.09929370e-05	0.00000000e+00
15.8           	1.91613110e-01	5.77446400e-05	1.13398050e-04	5.42525010e-05	0.00000000e+00
15.805         	3.08565480e-01	5.77460670e-05	1.13286870e-04	4.65704060e-05	0.00000000e+00
15.81          	7.69221970e-02	5.77466250e-05	1.13174410e-04	8.43275730e-05	0.00000000e+00
15.815         	1.34159420e-01	5.77463130e-05	1.13060670e-04	7.38146710e-05	0.00000000e+00
15.82          	2.53324450e-01	5.77451440e-05	1.12945670e-04	6.74129600e-05	0.00000000e+00
15.825         	1.60416230e-01	5.77431240e-05	1.12829430e-04	5.11112490e-05	0.00000000e+00
15.83          	3.96143780e-01	5.77402360e-05	1.12711910e-04	8.73208640e-05	0.00000000e+00
15.835         	1.70833540e-01	5.77365030e-05	1.12593170e-04	7.83800180e-05	0.00000000e+00
15.84          	2.92895950e-01	5.77319140e-05	1.12473160e-04	6.76052300e-05	0.00000000e+00
15.845         	6.27530090e-02	5.77264740e-05	1.12351910e-04	8.15702790e-05	0.00000000e+00
15.85          	8.87145670e-02	5.77201840e-05	1.12229430e-04	7.04469270e-05	0.00000000e+00
15.855         	7.64403920e-02	5.77130410e-05	1.12105690e-04	1.03552180e-04	0.00000000e+00
15.86          	1.64003280e-01	5.77050650e-05	1.11980740e-04	1.08692020e-04	0.00000000e+00
15.865         	1.23322860e-01	5.76962370e-05	1.11854550e-04	7.55453500e-05	0.00000000e+00
15.87          	2.14820170e-01	5.76865720e-05	1.11727140e-04	1.00422990e-04	0.00000000e+00
15.875         	1.87528660e-01	5.76760710e-05	1.11598510e-04	1.34030020e-04	0.00000000e+00
15.88          	1.49188120e-01	5.76647330e-05	1.11468670e-04	1.15180700e-04	0.00000000e+00
15.885         	1.13601100e-01	5.76525690e-05	1.11337620e-04	7.17390840e-05	0.00000000e+00
15.89          	1.46937260e-01	5.76395620e-05	1.11205350e-04	6.59436960e-05	0.00000000e+00
15.895         	2.51482080e-01	5.76257360e-05	1.11071900e-04	7.52122510e-05	0.00000000e+00
15.9           	1.32511320e-01	5.76110720e-05	1.10937230e-04	6.11317550e-05	0.00000000e+00
15.905         	2.61554830e-01	5.75955860e-05	1.10801370e-04	8.14912800e-05	0.00000000e+00
15.91          	1.10585970e-01	5.75792780e-05	1.10664320e-04	8.28043190e-05	0.00000000e+00
15.915         	4.36896850e-02	5.75621490e-05	1.10526080e-04	1.00018210e-04	0.00000000e+00
15.92          	1.73889860e-01	5.75442020e-05	1.10386660e-04	8.24840280e-05	0.00000000e+00
15.925         	8.76524030e-02	5.75254380e-05	1.10246060e-04	8.59512960e-05	0.00000000e+00
15.93          	1.59557760e-01	5.75058670e-05	1.10104300e-04	1.37411460e-04	0.00000000e+00
15.935         	1.90184870e-01	5.74854730e-05	1.09961350e-04	1.46203410e-04	0.00000000e+00
15.94          	2.44796310e-01	5.74642780e-05	1.09817260e-04	9.66930100e-05	0.00000000e+00
15.945         	9.85229580e-02	5.74422650e-05	1.09671980e-04	8.67356190e-05	0.00000000e+00
15.95          	3.85673930e-01	5.74194570e-05	1.09525560e-04	8.10556630e-05	0.00000000e+00
15.955         	5.12131500e-02	5.73958350e-05	1.09377970e-04	1.00422410e-04	0.00000000e+00
15.96          	1.21407420e-01	5.73714160e-05	1.09229240e-04	7.00239550e-05	0.00000000e+00
15.965         	3.68346470e-01	5.73462050e-05	1.09079370e-04	1.01090720e-04	0.00000000e+00
15.97          	1.95755890e-01	5.73201930e-05	1.08928360e-04	8.44642400e-05	0.00000000e+00
15.975         	4.06329880e-01	5.72933790e-05	1.08776190e-04	1.26153690e-04	0.00000000e+00
15.98          	4.00147100e-01	5.72657770e-05	1.08622900e-04	9.87206570e-05	0.00000000e+00
15.985         	2.70565260e-01	5.72373860e-05	1.08468490e-04	8.73695570e-05	0.00000000e+00
15.99          	3.05572230e-01	5.72082140e-05	1.08312960e-04	1.00899860e-04	0.00000000e+00
15.995         	1.29878760e-01	5.71782460e-05	1.08156300e-04	7.38130560e-05	0.00000000e+00
16             	3.89095060e-01	5.71475040e-05	1.07998530e-04	1.08431270e-04	0.00000000e+00
16.005         	1.13269850e-01	5.71159780e-05	1.07839650e-04	1.03776930e-04	0.00000000e+00
16.01          	9.34993840e-02	5.70836650e-05	1.07679650e-04	7.86793050e-05	0.00000000e+00
16.015         	1.98293650e-01	5.70505860e-05	1.07518560e-04	7.25552760e-05	0.00000000e+00
16.02          	3.58909280e-01	5.70167300e-05	1.07356370e-04	4.37002550e-05	0.00000000e+00
16.025         	2.10784560e-01	5.69821010e-05	1.07193080e-04	4.43548920e-05	0.00000000e+00
16.03          	5.01189320e-02	5.69466950e-05	1.07028690e-04	6.30034900e-05	0.00000000e+00
16.035         	2.50499550e-01	5.69105260e-05	1.06863230e-04	6.00498870e-05	0.00000000e+00
16.04          	1.66618700e-01	5.68736000e-05	1.06696690e-04	8.54269620e-05	0.00000000e+00
16.045         	8.95086190e-02	5.68359060e-05	1.06529080e-04	7.92656690e-05	0.00000000e+00
16.05          	9.13453900e-02	5.67974520e-05	1.06360380e-04	6.71815080e-05	0.00000000e+00
16.055         	2.24764400e-01	5.67582320e-05	1.06190610e-04	6.90730910e-05	0.00000000e+00
16.06          	7.95958860e-02	5.67182600e-05	1.06019780e-04	4.58706820e-05	0.00000000e+00
16.065         	7.35900100e-02	5.66775420e-05	1.05847910e-04	7.53170520e-05	0.00000000e+00
16.07          	4.07864850e-01	5.66360690e-05	1.05674970e-04	6.63449170e-05	0.00000000e+00
16.075         	1.34268190e-01	5.65938390e-05	1.05500970e-04	7.66069130e-05	0.00000000e+00
16.08          	1.85277720e-01	5.65508670e-05	1.05325930e-04	1.37217370e-04	0.00000000e+00
16.085         	1.01146740e-01	5.65071570e-05	1.05149860e-04	8.99829960e-05	0.00000000e+00
16.09          	1.47774330e-01	5.64627020e-05	1.04972740e-04	8.95368740e-05	0.00000000e+00
16.095         	2.83474080e-01	5.64174990e-05	1.04794580e-04	4.71209770e-05	0.00000000e+00
16.1           	2.15797780e-01	5.63715630e-05	1.04615400e-04	8.18569500e-05	0.00000000e+00
16.105         	2.40015040e-01	5.63248990e-05	1.04435200e-04	5.27781930e-05	0.00000000e+00
16.11          	1.03364110e-01	5.62774920e-05	1.04253970e-04	1.28246140e-04	0.00000000e+00
16.115         	8.03907710e-02	5.62293580e-05	1.04071720e-04	5.93290700e-05	0.00000000e+00
16.12          	1.14991900e-01	5.61805030e-05	1.03888480e-04	4.14972220e-05	0.00000000e+00
16.125         	1.65993230e-01	5.61309120e-05	1.03704220e-04	1.09177880e-04	0.00000000e+00
16.13          	1.26043880e-01	5.60806000e-05	1.03518950e-04	1.19928880e-04	0.00000000e+00
16.135         	5.79361720e-02	5.60295690e-05	1.03332690e-04	6.83810750e-05	0.00000000e+00
16.14          	1.06381110e-01	5.59778190e-05	1.03145440e-04	8.31431930e-05	0.00000000e+00
16.145         	1.25785770e-01	5.59253530e-05	1.02957200e-04	1.27807240e-04	0.00000000e+00
16.15          	2.69469440e-01	5.58721800e-05	1.02767980e-04	6.75347570e-05	0.00000000e+00
16.155         	1.20080840e-01	5.58182840e-05	1.02577770e-04	1.08283580e-04	0.00000000e+00
16.16          	2.02260820e-01	5.57636820e-05	1.02386580e-04	6.81760090e-05	0.00000000e+00
16.165         	1.33992890e-01	5.57083740e-05	1.02194420e-04	9.34395680e-05	0.00000000e+00
16.17          	2.06045930e-01	5.56523690e-05	1.02001310e-04	4.27277550e-05	0.00000000e+00
16.175         	7.99989960e-02	5.55956570e-05	1.01807230e-04	6.81282060e-05	0.00000000e+00
16.18          	1.25700340e-01	5.55382380e-05	1.01612180e-04	1.00613750e-04	0.00000000e+00
16.185         	1.30394700e-01	5.54801320e-05	1.01416200e-04	4.12582680e-05	0.00000000e+00
16.19          	1.06164010e-01	5.54213280e-05	1.01219260e-04	7.40609860e-05	0.00000000e+00
16.195         	9.16704860e-02	5.53618300e-05	1.01021370e-04	9.54189090e-05	0.00000000e+00
16.2           	1.48566060e-01	5.53016360e-05	1.00822530e-04	5.15926740e-05	0.00000000e+00
16.205         	1.37363260e-01	5.52407650e-05	1.00622770e-04	6.97722410e-05	0.00000000e+00
16.21          	7.27048140e-02	5.51792060e-05	1.00422080e-04	9.25494830e-05	0.00000000e+00
16.215         	1.12806740e-01	5.51169630e-05	1.00220460e-04	6.42848910e-05	0.00000000e+00
16.22          	1.46399140e-01	5.50540330e-05	1.00017910e-04	8.68181950e-05	0.00000000e+00
16.225         	1.56712060e-01	5.49904290e-05	9.98144450e-05	8.53555880e-05	0.00000000e+00
16.23          	1.27181610e-01	5.49261500e-05	9.96100710e-05	7.50512520e-05	0.00000000e+00
16.235         	9.85168740e-02	5.48612000e-05	9.94047900e-05	9.45623500e-05	0.00000000e+00
16.24          	1.48464320e-01	5.47955780e-05	9.91986060e-05	8.90015020e-05	0.00000000e+00
16.245         	2.24422480e-01	5.47292950e-05	9.89915340e-05	1.17065840e-04	0.00000000e+00
16.25          	2.02386570e-01	5.46623350e-05	9.87835480e-05	1.15697450e-04	0.00000000e+00
16.255         	2.29765040e-01	5.45947210e-05	9.85746890e-05	8.94010510e-05	0.00000000e+00
16.26          	3.10626890e-01	5.45264430e-05	9.83649390e-05	8.04572140e-05	0.00000000e+00
16.265         	1.04979460e-01	5.44575050e-05	9.81543050e-05	9.94973500e-05	0.00000000e+00
16.27          	7.64542920e-02	5.43879110e-05	9.79427950e-05	1.29025410e-04	0.00000000e+00
16.275         	1.51224940e-01	5.43176570e-05	9.77304020e-05	9.46056630e-05	0.00000000e+00
16.28          	1.14016220e-01	5.42467560e-05	9.75171480e-05	8.34548080e-05	0.00000000e+00
16.285         	1.13963350e-01	5.41752130e-05	9.73030460e-05	1.18968860e-04	0.00000000e+00
16.29          	3.63575650e-01	5.41030210e-05	9.70880790e-05	7.56277710e-05	0.00000000e+00
16.295         	2.48267660e-01	5.40301770e-05	9.68722460e-05	8.74227680e-05	0.00000000e+00
16.3           	1.56879800e-01	5.39566960e-05	9.66555700e-05	1.10297000e-04	0.00000000e+00
16.305         	7.35969120e-02	5.38825830e-05	9.64380640e-05	9.62798130e-05	0.00000000e+00
16.31          	2.40144810e-01	5.38078300e-05	9.62197110e-05	6.59725280e-05	0.00000000e+00
16.315         	7.80075520e-02	5.37324420e-05	9.60005210e-05	5.92058400e-05	0.00000000e+00
16.32          	1.18358470e-01	5.36564220e-05	9.57804990e-05	4.41751150e-05	0.00000000e+00
16.325         	7.51795480e-02	5.35797730e-05	9.55596520e-05	6.43452450e-05	0.00000000e+00
16.33          	2.37376410e-01	5.35024970e-05	9.53379830e-05	9.93282330e-05	0.00000000e+00
16.335         	1.85895670e-01	5.34245920e-05	9.51154870e-05	6.43586680e-05	0.00000000e+00
16.34          	1.20535300e-01	5.33460740e-05	9.48921970e-05	4.30820350e-05	0.00000000e+00
16.345         	4.74954350e-01	5.32669350e-05	9.46680950e-05	7.53166200e-05	0.00000000e+00
16.35          	1.27607130e-01	5.31871720e-05	9.44431770e-05	6.09152510e-05	0.00000000e+00
16.355         	2.01660630e-01	5.31067990e-05	9.42174680e-05	5.30552240e-05	0.00000000e+00
16.36          	9.28799850e-02	5.30258210e-05	9.39909790e-05	8.75149010e-05	0.00000000e+00
16.365         	1.15852720e-01	5.29442250e-05	9.37636840e-05	8.14171440e-05	0.00000000e+00
16.37          	3.89193890e-01	5.28620310e-05	9.35356200e-05	8.05751050e-05	0.00000000e+00
16.375         	1.81795150e-01	5.27792290e-05	9.33067710e-05	5.15745520e-05	0.00000000e+00
16.38          	1.08615370e-01	5.26958250e-05	9.30771450e-05	1.18719300e-04	0.00000000e+00
16.385         	8.75642950e-02	5.26118150e-05	9.28467380e-05	6.12985690e-05	0.00000000e+00
16.39          	1.29620780e-01	5.25272190e-05	9.26155830e-05	6.78928530e-05	0.00000000e+00
16.395         	7.04683520e-02	5.24420190e-05	9.23836510e-05	6.87129320e-05	0.00000000e+00
16.4           	6.74901450e-02	5.23562310e-05	9.21509690e-05	5.57352360e-05	0.00000000e+00
16.405         	1.91735400e-01	5.22698550e-05	9.19175360e-05	3.31363540e-05	0.00000000e+00
16.41          	2.46267920e-01	5.21828930e-05	9.16833570e-05	5.50050220e-05	0.00000000e+00
16.415         	2.17162730e-01	5.20953520e-05	9.14484470e-05	4.70322210e-05	0.00000000e+00
16.42          	1.10704760e-01	5.20072200e-05	9.12127810e-05	5.51421010e-05	0.00000000e+00
16.425         	4.49151730e-02	5.19185170e-05	9.09763970e-05	7.07054020e-05	0.00000000e+00
16.43          	7.83844110e-02	5.18292280e-05	9.07392690e-05	7.41363820e-05	0.00000000e+00
16.435         	1.91472600e-01	5.17393750e-05	9.05014330e-05	7.51247770e-05	0.00000000e+00
16.44          	1.50323250e-01	5.16489460e-05	9.02628720e-05	1.01404160e-04	0.00000000e+00
16.445         	2.29188360e-01	5.15579420e-05	9.00235850e-05	6.88285430e-05	0.00000000e+00
16.45          	4.59062610e-01	5.14663810e-05	8.97836050e-05	7.37903580e-05	0.00000000e+00
16.455         	2.72376710e-01	5.13742470e-05	8.95429040e-05	4.32659470e-05	0.00000000e+00
16.46          	2.80370810e-01	5.12815540e-05	8.93015090e-05	6.38357760e-05	0.00000000e+00
16.465         	3.68400450e-01	5.11883090e-05	8.90594290e-05	5.11703830e-05	0.00000000e+00
16.47          	4.41712180e-01	5.10945050e-05	8.88166530e-05	6.31038350e-05	0.00000000e+00
16.475         	1.41189580e-01	5.10001450e-05	8.85731870e-05	7.53444520e-05	0.00000000e+00
16.48          	1.53308360e-01	5.09052270e-05	8.83290300e-05	1.01851640e-04	0.00000000e+00
16.485         	1.20705350e-01	5.08097700e-05	8.80842110e-05	8.84259710e-05	0.00000000e+00
16.49          	1.98373800e-01	5.07137590e-05	8.78387060e-05	8.44578340e-05	0.00000000e+00
16.495         	6.37737830e-02	5.06172060e-05	8.75925380e-05	6.16922200e-05	0.00000000e+00
16.5           	1.00068910e-01	5.05201130e-05	8.73457090e-05	7.91812770e-05	0.00000000e+00
16.505         	2.30542860e-01	5.04224880e-05	8.70982320e-05	7.98741900e-05	0.00000000e+00
16.51          	1.99134580e-01	5.03243220e-05	8.68500950e-05	9.80435450e-05	0.00000000e+00
16.515         	1.47148750e-01	5.02256160e-05	8.66012970e-05	7.83299170e-05	0.00000000e+00
16.52          	6.27611160e-02	5.01263820e-05	8.63518610e-05	7.46387270e-05	0.00000000e+00
16.525         	1.18964520e-01	5.00266210e-05	8.61017870e-05	1.38084520e-04	0.00000000e+00
16.53          	1.82714290e-01	4.99263390e-05	8.58510880e-05	9.15298830e-05	0.00000000e+00
16.535         	2.36120800e-01	4.98255250e-05	8.55997430e-05	1.49085600e-04	0.00000000e+00
16.54          	5.33466350e-01	4.97241970e-05	8.53477860e-05	1.29271660e-04	0.00000000e+00
16.545         	1.02955220e-01	4.96223490e-05	8.50952040e-05	1.60793940e-04	0.00000000e+00
16.55          	7.76529940e-02	4.95199780e-05	8.48419940e-05	1.39437410e-04	0.00000000e+00
16.555         	1.37242510e-01	4.94171020e-05	8.45881880e-05	7.94861440e-05	0.00000000e+00
16.56          	3.37015400e-01	4.93137130e-05	8.43337700e-05	1.02616650e-04	0.00000000e+00
16.565         	9.55238380e-02	4.92098100e-05	8.40787400e-05	1.52485730e-04	0.00000000e+00
16.57          	1.95821240e-01	4.91054090e-05	8.38231270e-05	1.52279270e-04	0.00000000e+00
16.575         	2.90618780e-01	4.90004980e-05	8.35669070e-05	1.65535820e-04	0.00000000e+00
16.58          	6.81856620e-02	4.88950940e-05	8.33101140e-05	1.28255370e-04	0.00000000e+00
16.585         	7.66266380e-02	4.87891830e-05	8.30527230e-05	1.76088580e-04	0.00000000e+00
16.59          	1.44511200e-01	4.86827800e-05	8.27947580e-05	2.01913650e-04	0.00000000e+00
16.595         	1.17537050e-01	4.85758850e-05	8.25362210e-05	1.58422110e-04	0.00000000e+00
16.6           	1.08266010e-01	4.84684990e-05	8.22771150e-05	1.46047540e-04	0.00000000e+00
16.605         	1.94214930e-01	4.83606260e-05	8.20174440e-05	1.60236780e-04	0.00000000e+00
16.61          	1.42799750e-01	4.82522730e-05	8.17572220e-05	1.36466890e-04	0.00000000e+00
16.615         	1.41946220e-01	4.81434280e-05	8.14964300e-05	1.67667830e-04	0.00000000e+00
16.62          	1.15539370e-01	4.80341050e-05	8.12350910e-05	1.07675910e-04	0.00000000e+00
16.625         	1.56435250e-01	4.79243110e-05	8.09732170e-05	1.41216530e-04	0.00000000e+00
16.63          	1.29189110e-01	4.78140330e-05	8.07107860e-05	1.14220050e-04	0.00000000e+00
16.635         	1.49596060e-01	4.77032900e-05	8.04478320e-05	1.46611170e-04	0.00000000e+00
16.64          	1.36973750e-01	4.75920740e-05	8.01843410e-05	1.18839020e-04	0.00000000e+00
16.645         	3.43826150e-01	4.74803900e-05	7.99203220e-05	1.27310170e-04	0.00000000e+00
16.65          	1.24707170e-01	4.73682400e-05	7.96557790e-05	1.21735580e-04	0.00000000e+00
16.655         	1.77804660e-01	4.72556280e-05	7.93907180e-05	1.20694650e-04	0.00000000e+00
16.66          	1.69557790e-01	4.71425510e-05	7.91251340e-05	1.49233200e-04	0.00000000e+00
16.665         	1.38291200e-01	4.70290260e-05	7.88590580e-05	1.45578790e-04	0.00000000e+00
16.67          	8.21887450e-02	4.69150370e-05	7.85924630e-05	1.77659240e-04	0.00000000e+00
16.675         	1.97224940e-01	4.68006000e-05	7.83253750e-05	1.59560470e-04	0.00000000e+00
16.68          	1.70517660e-01	4.66857140e-05	7.80577930e-05	1.15977740e-04	0.00000000e+00
16.685         	9.09689320e-02	4.65703860e-05	7.77897310e-05	1.37936920e-04	0.00000000e+00
16.69          	9.09390100e-02	4.64546110e-05	7.75211770e-05	1.18832890e-04	0.00000000e+00
16.695         	1.90857060e-01	4.63383870e-05	7.72521320e-05	1.20883750e-04	0.00000000e+00
16.7           	1.95033440e-01	4.62217270e-05	7.69826160e-05	1.18834070e-04	0.00000000e+00
16.705         	1.40717650e-01	4.61046360e-05	7.67126400e-05	9.44960430e-05	0.00000000e+00
16.71          	4.49429890e-01	4.59871020e-05	7.64421830e-05	1.01948000e-04	0.00000000e+00
16.715         	3.06945470e-01	4.58691390e-05	7.61712670e-05	1.18225980e-04	0.00000000e+00
16.72          	1.89913540e-01	4.57507480e-05	7.58998960e-05	9.59029280e-05	0.00000000e+00
16.725         	1.39858090e-01	4.56319360e-05	7.56280810e-05	1.22807390e-04	0.00000000e+00
16.73          	9.67028220e-02	4.55126910e-05	7.53558030e-05	1.05634340e-04	0.00000000e+00
16.735         	1.39668680e-01	4.53930270e-05	7.50830860e-05	9.66722090e-05	0.00000000e+00
16.74          	3.62934440e-01	4.52729500e-05	7.48099400e-05	9.75613890e-05	0.00000000e+00
16.745         	1.17706870e-01	4.51524480e-05	7.45363460e-05	8.58993370e-05	0.00000000e+00
16.75          	9.85287210e-02	4.50315390e-05	7.42623340e-05	9.08999070e-05	0.00000000e+00
16.755         	3.29420020e-01	4.49102170e-05	7.39878940e-05	9.56249530e-05	0.00000000e+00
16.76          	1.08721100e-01	4.47884850e-05	7.37130310e-05	1.62732790e-04	0.00000000e+00
16.765         	1.29817250e-01	4.46663410e-05	7.34377440e-05	1.10381500e-04	0.00000000e+00
16.77          	1.24704060e-01	4.45438020e-05	7.31620590e-05	8.14603970e-05	0.00000000e+00
16.775         	7.68040290e-02	4.44208550e-05	7.28859560e-05	9.77989350e-05	0.00000000e+00
16.78          	1.82792810e-01	4.42975170e-05	7.26094640e-05	1.11528020e-04	0.00000000e+00
16.785         	1.42133310e-01	4.41737800e-05	7.23325700e-05	1.34964900e-04	0.00000000e+00
16.79          	9.41026000e-02	4.40496440e-05	7.20552740e-05	1.05466020e-04	0.00000000e+00
16.795         	2.33515150e-01	4.39251190e-05	7.17775950e-05	1.50213320e-04	0.00000000e+00
16.8           	3.26316930e-01	4.38002080e-05	7.14995340e-05	1.03484230e-04	0.00000000e+00
16.805         	1.06558700e-01	4.36749110e-05	7.12210950e-05	1.05745880e-04	0.00000000e+00
16.81          	2.50925520e-01	4.35492360e-05	7.09422900e-05	8.15524870e-05	0.00000000e+00
16.815         	1.46069100e-01	4.34231720e-05	7.06631020e-05	1.35553790e-04	0.00000000e+00
16.82          	3.06628970e-01	4.32967320e-05	7.03835520e-05	1.34543930e-04	0.00000000e+00
16.825         	1.65051840e-01	4.31699220e-05	7.01036520e-05	7.76989500e-05	0.00000000e+00
16.83          	1.12542830e-01	4.30427360e-05	6.98233900e-05	7.81100560e-05	0.00000000e+00
16.835         	1.02527380e-01	4.29151730e-05	6.95427670e-05	8.70560970e-05	0.00000000e+00
16.84          	7.78882380e-02	4.27872500e-05	6.92618110e-05	1.43062540e-04	0.00000000e+00
16.845         	1.17122610e-01	4.26589590e-05	6.89805080e-05	8.40439110e-05	0.00000000e+00
16.85          	1.98167880e-01	4.25303000e-05	6.86988590e-05	9.05530200e-05	0.00000000e+00
16.855         	1.46161310e-01	4.24012880e-05	6.84168900e-05	7.01957640e-05	0.00000000e+00
16.86          	3.47816910e-01	4.22719160e-05	6.81345880e-05	8.18376570e-05	0.00000000e+00
16.865         	1.35251910e-01	4.21421830e-05	6.78519530e-05	7.06911840e-05	0.00000000e+00
16.87          	2.46333870e-01	4.20121000e-05	6.75690040e-05	5.14349700e-05	0.00000000e+00
16.875         	9.80943810e-02	4.18816680e-05	6.72857410e-05	8.38998440e-05	0.00000000e+00
16.88          	1.19461080e-01	4.17508890e-05	6.70021690e-05	4.59569310e-05	0.00000000e+00
16.885         	4.10550940e-01	4.16197690e-05	6.67182990e-05	1.14727270e-04	0.00000000e+00
16.89          	1.12217870e-01	4.14883030e-05	6.64341230e-05	4.53352180e-05	0.00000000e+00
16.895         	1.07982530e-01	4.13564920e-05	6.61496410e-05	1.07586060e-04	0.00000000e+00
16.9           	1.83854570e-01	4.12243450e-05	6.58648710e-05	6.70596340e-05	0.00000000e+00
16.905         	1.24515950e-01	4.10918690e-05	6.55798220e-05	7.98277380e-05	0.00000000e+00
16.91          	2.00974130e-01	4.09590580e-05	6.52944860e-05	5.59988040e-05	0.00000000e+00
16.915         	2.28946800e-01	4.08259160e-05	6.50088700e-05	1.21875560e-04	0.00000000e+00
16.92          	1.41170470e-01	4.06924460e-05	6.47229790e-05	8.87987320e-05	0.00000000e+00
16.925         	1.51961190e-01	4.05586510e-05	6.44368180e-05	8.73772750e-05	0.00000000e+00
16.93          	1.47259420e-01	4.04245280e-05	6.41503850e-05	1.24266310e-04	0.00000000e+00
16.935         	4.60347610e-01	4.02900890e-05	6.38636960e-05	1.05642610e-04	0.00000000e+00
16.94          	9.94433890e-02	4.01553380e-05	6.35767600e-05	1.41007730e-04	0.00000000e+00
16.945         	1.47036800e-01	4.00202690e-05	6.32895680e-05	1.02619720e-04	0.00000000e+00
16.95          	1.42250220e-01	3.98848870e-05	6.30021280e-05	1.09198830e-04	0.00000000e+00
16.955         	1.16745850e-01	3.97491900e-05	6.27144370e-05	1.06680240e-04	0.00000000e+00
16.96          	1.31165120e-01	3.96131940e-05	6.24265190e-05	8.52298430e-05	0.00000000e+00
16.965         	1.37344840e-01	3.94768850e-05	6.21383580e-05	1.20321180e-04	0.00000000e+00
16.97          	1.17888760e-01	3.93402770e-05	6.18499710e-05	9.24907920e-05	0.00000000e+00
16.975         	4.17772440e-01	3.92033740e-05	6.15613670e-05	1.68459320e-04	0.00000000e+00
16.98          	1.22788160e-01	3.90661670e-05	6.12725320e-05	1.21154490e-04	0.00000000e+00
16.985         	3.50523170e-01	3.89286670e-05	6.09834840e-05	1.12227850e-04	0.00000000e+00
16.99          	1.03957970e-01	3.87908790e-05	6.06942320e-05	1.28419480e-04	0.00000000e+00
16.995         	1.46582070e-01	3.86527950e-05	6.04047620e-05	1.44970410e-04	0.00000000e+00
17             	1.06639000e-01	3.85144250e-05	6.01150930e-05	1.20927260e-04	0.00000000e+00
17.005         	5.94505040e-02	3.83757710e-05	5.98252260e-05	1.04324900e-04	0.00000000e+00
17.01          	2.10361560e-01	3.82368400e-05	5.95351740e-05	1.24323410e-04	0.00000000e+00
17.015         	4.23617350e-01	3.80976210e-05	5.92449200e-05	1.21550010e-04	0.00000000e+00
17.02          	2.69999780e-01	3.79581270e-05	5.89544840e-05	1.28640840e-04	0.00000000e+00
17.025         	7.72386870e-02	3.78183630e-05	5.86638750e-05	9.34390650e-05	0.00000000e+00
17.03          	1.26846070e-01	3.76783240e-05	5.83730860e-05	1.00622360e-04	0.00000000e+00
17.035         	9.28780900e-02	3.75380140e-05	5.80821240e-05	1.06410160e-04	0.00000000e+00
17.04          	3.52989360e-01	3.73974320e-05	5.77909870e-05	1.35388350e-04	0.00000000e+00
17.045         	1.49446850e-01	3.72565880e-05	5.74996910e-05	1.73721500e-04	0.00000000e+00
17.05          	1.15693130e-01	3.71154870e-05	5.72082450e-05	1.80538260e-04	0.00000000e+00
17.055         	1.66943040e-01	3.69741230e-05	5.69166400e-05	1.43952860e-04	0.00000000e+00
17.06          	1.39529290e-01	3.68324970e-05	5.66248780e-05	1.53887030e-04	0.00000000e+00
17.065         	9.95405830e-02	3.66906180e-05	5.63329730e-05	1.52125060e-04	0.00000000e+00
17.07          	1.13253070e-01	3.65484910e-05	5.60409350e-05	1.92057260e-04	0.00000000e+00
17.075         	1.84110530e-01	3.64061120e-05	5.57487560e-05	1.69016010e-04	0.00000000e+00
17.08          	9.64878500e-02	3.62634800e-05	5.54564370e-05	1.25654210e-04	0.00000000e+00
17.085         	3.73947100e-01	3.61206060e-05	5.51639930e-05	1.44805630e-04	0.00000000e+00
17.09          	1.51774510e-01	3.59774900e-05	5.48714270e-05	1.94004370e-04	0.00000000e+00
17.095         	1.43784580e-01	3.58341340e-05	5.45787410e-05	1.31363510e-04	0.00000000e+00
17.1           	1.39866380e-01	3.56905400e-05	5.42859400e-05	1.51540520e-04	0.00000000e+00
17.105         	8.67802370e-02	3.55467150e-05	5.39930340e-05	2.05413150e-04	0.00000000e+00
17.11          	2.17582930e-01	3.54026540e-05	5.37000170e-05	1.48386530e-04	0.00000000e+00
17.115         	1.00799550e-01	3.52583620e-05	5.34068960e-05	1.44399400e-04	0.00000000e+00
17.12          	2.91285740e-01	3.51138380e-05	5.31136690e-05	1.49646600e-04	0.00000000e+00
17.125         	1.65651330e-01	3.49690910e-05	5.28203530e-05	1.77109900e-04	0.00000000e+00
17.13          	2.64655450e-01	3.48241250e-05	5.25269550e-05	1.22188140e-04	0.00000000e+00
17.135         	1.68180200e-01	3.46789370e-05	5.22334670e-05	1.15763400e-04	0.00000000e+00
17.14          	1.08453260e-01	3.45335300e-05	5.19398970e-05	1.31062690e-04	0.00000000e+00
17.145         	3.96884700e-01	3.43879060e-05	5.16462490e-05	1.62052780e-04	0.00000000e+00
17.15          	1.04408490e-01	3.42420660e-05	5.13525220e-05	1.53961080e-04	0.00000000e+00
17.155         	3.86998020e-01	3.40960160e-05	5.10587310e-05	1.40895910e-04	0.00000000e+00
17.16          	2.42958860e-01	3.39497600e-05	5.07648760e-05	1.72574320e-04	0.00000000e+00
17.165         	1.14634000e-01	3.38032980e-05	5.04709620e-05	1.16457260e-04	0.00000000e+00
17.17          	2.75928790e-01	3.36566360e-05	5.01769980e-05	1.60530210e-04	0.00000000e+00
17.175         	1.22773720e-01	3.35097700e-05	4.98829780e-05	1.43948910e-04	0.00000000e+00
17.18          	9.13435930e-02	3.33627050e-05	4.95889090e-05	1.26525560e-04	0.00000000e+00
17.185         	1.36337510e-01	3.32154390e-05	4.92947900e-05	1.49625470e-04	0.00000000e+00
17.19          	1.56153520e-01	3.30679820e-05	4.90006360e-05	1.08504370e-04	0.00000000e+00
17.195         	1.05518670e-01	3.29203380e-05	4.87064540e-05	1.53053450e-04	0.00000000e+00
17.2           	1.12799020e-01	3.27724990e-05	4.84122310e-05	1.45381520e-04	0.00000000e+00
17.205         	2.21693610e-01	3.26244740e-05	4.81179850e-05	2.03728030e-04	0.00000000e+00
17.21          	9.14388760e-02	3.24762670e-05	4.78237160e-05	1.56064550e-04	0.00000000e+00
17.215         	2.13456160e-01	3.23278770e-05	4.75294300e-05	1.83099680e-04	0.00000000e+00
17.22          	3.12934780e-01	3.21793120e-05	4.72351340e-05	1.49703840e-04	0.00000000e+00
17.225         	8.85184000e-02	3.20305640e-05	4.69408190e-05	1.55444040e-04	0.00000000e+00
17.23          	4.24171190e-01	3.18816420e-05	4.66465010e-05	1.55698950e-04	0.00000000e+00
17.235         	2.79518170e-01	3.17325520e-05	4.63521860e-05	1.48700740e-04	0.00000000e+00
17.24          	8.82282010e-02	3.15832870e-05	4.60578650e-05	1.57736500e-04	0.00000000e+00
17.245         	2.58947270e-01	3.14338560e-05	4.57635520e-05	1.38879670e-04	0.00000000e+00
17.25          	8.80691870e-02	3.12842600e-05	4.54692500e-05	1.26916680e-04	0.00000000e+00
17.255         	1.05552890e-01	3.11345050e-05	4.51749680e-05	1.40318780e-04	0.00000000e+00
17.26          	1.80015260e-01	3.09845870e-05	4.48807000e-05	8.83717680e-05	0.00000000e+00
17.265         	4.79791970e-01	3.08345070e-05	4.45864480e-05	1.51628140e-04	0.00000000e+00
17.27          	1.69298360e-01	3.06842770e-05	4.42922310e-05	1.15174690e-04	0.00000000e+00
17.275         	1.49670650e-01	3.05338890e-05	4.39980370e-05	1.18789480e-04	0.00000000e+00
17.28          	6.52295460e-02	3.03833510e-05	4.37038800e-05	2.28497330e-04	0.00000000e+00
17.285         	1.12447670e-01	3.02326690e-05	4.34097670e-05	1.11685890e-04	0.00000000e+00
17.29          	3.65075220e-01	3.00818390e-05	4.31156930e-05	1.45673010e-04	0.00000000e+00
17.295         	1.25956220e-01	2.99308600e-05	4.28216600e-05	1.13533990e-04	0.00000000e+00
17.3           	2.23601670e-01	2.97797460e-05	4.25276850e-05	1.08750000e-04	0.00000000e+00
17.305         	2.48722640e-01	2.96284870e-05	4.22337570e-05	1.04551840e-04	0.00000000e+00
17.31          	9.06788540e-02	2.94770960e-05	4.19398950e-05	8.42888410e-05	0.00000000e+00
17.315         	9.87745500e-02	2.93255660e-05	4.16460870e-05	8.87489710e-05	0.00000000e+00
17.32          	3.47061450e-01	2.91739060e-05	4.13523490e-05	8.58566080e-05	0.00000000e+00
17.325         	1.28195480e-01	2.90221160e-05	4.10586810e-05	7.79276310e-05	0.00000000e+00
17.33          	2.23854330e-01	2.88702030e-05	4.07650930e-05	1.10866890e-04	0.00000000e+00
17.335         	4.41468620e-02	2.87181620e-05	4.04715790e-05	9.10751070e-05	0.00000000e+00
17.34          	1.61864050e-01	2.85659940e-05	4.01781410e-05	4.76884970e-05	0.00000000e+00
17.345         	1.24449860e-01	2.84137080e-05	3.98847920e-05	7.01219100e-05	0.00000000e+00
17.35          	1.85559000e-01	2.82613080e-05	3.95915390e-05	7.27488080e-05	0.00000000e+00
17.355         	1.90407350e-01	2.81087890e-05	3.92983760e-05	7.11262220e-05	0.00000000e+00
17.36          	2.00136380e-01	2.79561570e-05	3.90053100e-05	4.13749840e-05	0.00000000e+00
17.365         	1.25643540e-01	2.78034130e-05	3.87123440e-05	4.48084330e-05	0.00000000e+00
17.37          	1.82563630e-01	2.76505560e-05	3.84194800e-05	5.63982210e-05	0.00000000e+00
17.375         	9.87765030e-02	2.74975990e-05	3.81267320e-05	6.33257040e-05	0.00000000e+00
17.38          	1.04753060e-01	2.73445320e-05	3.78340900e-05	8.85852140e-05	0.00000000e+00
17.385         	2.07415790e-01	2.71913680e-05	3.75415720e-05	6.12068450e-05	0.00000000e+00
17.39          	2.15669820e-01	2.70381000e-05	3.72491670e-05	5.86255000e-05	0.00000000e+00
17.395         	1.40518410e-01	2.68847390e-05	3.69568940e-05	6.51537590e-05	0.00000000e+00
17.4           	1.25832680e-01	2.67312780e-05	3.66647420e-05	8.31650500e-05	0.00000000e+00
17.405         	2.76466890e-01	2.65777250e-05	3.63727240e-05	7.85641910e-05	0.00000000e+00
17.41          	1.04810250e-01	2.64240830e-05	3.60808430e-05	1.15618380e-04	0.00000000e+00
17.415         	1.57817010e-01	2.62703520e-05	3.57891020e-05	6.75097210e-05	0.00000000e+00
17.42          	1.09091370e-01	2.61165360e-05	3.54975040e-05	6.64688540e-05	0.00000000e+00
17.425         	1.56757120e-01	2.59626350e-05	3.52060530e-05	1.10609890e-04	0.00000000e+00
17.43          	1.20271260e-01	2.58086530e-05	3.49147520e-05	4.91560700e-05	0.00000000e+00
17.435         	2.23870480e-01	2.56545950e-05	3.46236100e-05	1.09980010e-04	0.00000000e+00
17.44          	1.91067390e-01	2.55004570e-05	3.43326240e-05	5.43117760e-05	0.00000000e+00
17.445         	3.90700450e-01	2.53462410e-05	3.40417950e-05	1.01509870e-04	0.00000000e+00
17.45          	1.07588670e-01	2.51919570e-05	3.37511370e-05	1.07281460e-04	0.00000000e+00
17.455         	1.69679130e-01	2.50376020e-05	3.34606470e-05	5.23366260e-05	0.00000000e+00
17.46          	9.98239190e-02	2.48831780e-05	3.31703300e-05	7.58307950e-05	0.00000000e+00
17.465         	3.31653350e-01	2.47286880e-05	3.28801890e-05	6.81393360e-05	0.00000000e+00
17.47          	9.53271270e-02	2.45741340e-05	3.25902280e-05	7.46154590e-05	0.00000000e+00
17.475         	1.79218920e-01	2.44195160e-05	3.23004470e-05	6.01730750e-05	0.00000000e+00
17.48          	2.09473360e-01	2.42648400e-05	3.20108560e-05	8.31486740e-05	0.00000000e+00
17.485         	1.86344320e-01	2.41101090e-05	3.17214580e-05	5.21845300e-05	0.00000000e+00
17.49          	1.93381710e-01	2.39553220e-05	3.14322540e-05	7.02930870e-05	0.00000000e+00
17.495         	7.98546270e-02	2.38004840e-05	3.11432500e-05	7.05330460e-05	0.00000000e+00
17.5           	1.95386390e-01	2.36455950e-05	3.08544470e-05	3.76832100e-05	0.00000000e+00
17.505         	1.70435440e-01	2.34906580e-05	3.05658500e-05	7.67974840e-05	0.00000000e+00
17.51          	1.14101190e-01	2.33356770e-05	3.02774660e-05	1.29764940e-04	0.00000000e+00
17.515         	4.66193650e-01	2.31806490e-05	2.99892880e-05	6.22333280e-05	0.00000000e+00
17.52          	1.08911650e-01	2.30255800e-05	2.97013290e-05	1.80492580e-04	0.00000000e+00
17.525         	1.57044460e-01	2.28704750e-05	2.94135930e-05	7.00432700e-05	0.00000000e+00
17.53          	1.04324280e-01	2.27153310e-05	2.91260790e-05	1.12721400e-04	0.00000000e+00
17.535         	1.45320570e-01	2.25601510e-05	2.88387910e-05	1.59135050e-04	0.00000000e+00
17.54          	1.63625560e-01	2.24049360e-05	2.85517300e-05	1.80539370e-04	0.00000000e+00
17.545         	2.29123920e-01	2.22496920e-05	2.82649050e-05	1.69593310e-04	0.00000000e+00
17.55          	1.14603480e-01	2.20944220e-05	2.79783220e-05	1.70039970e-04	0.00000000e+00
17.555         	1.29476000e-01	2.19391220e-05	2.76919740e-05	1.14171730e-04	0.00000000e+00
17.56          	8.93462340e-02	2.17837990e-05	2.74058720e-05	1.83280140e-04	0.00000000e+00
17.565         	2.47926080e-01	2.16284570e-05	2.71200220e-05	1.41193920e-04	0.00000000e+00
17.57          	1.45400380e-01	2.14730940e-05	2.68344210e-05	1.44927770e-04	0.00000000e+00
17.575         	1.51180030e-01	2.13177120e-05	2.65490740e-05	1.28372740e-04	0.00000000e+00
17.58          	1.41723490e-01	2.11623150e-05	2.62639860e-05	1.47081960e-04	0.00000000e+00
17.585         	8.84201910e-02	2.10069020e-05	2.59791550e-05	1.51352050e-04	0.00000000e+00
17.59          	2.02046040e-01	2.08514790e-05	2.56945920e-05	1.71438940e-04	0.00000000e+00
17.595         	1.78427010e-01	2.06960470e-05	2.54102980e-05	1.51754390e-04	0.00000000e+00
17.6           	2.84632020e-01	2.05406110e-05	2.51262790e-05	1.31089840e-04	0.00000000e+00
17.605         	1.49616500e-01	2.03851660e-05	2.48425300e-05	1.30431900e-04	0.00000000e+00
17.61          	1.30289840e-01	2.02297190e-05	2.45590610e-05	1.80241320e-04	0.00000000e+00
17.615         	2.37615020e-01	2.00742740e-05	2.42758780e-05	1.20565210e-04	0.00000000e+00
17.62          	1.31926080e-01	1.99188300e-05	2.39929780e-05	7.62683950e-05	0.00000000e+00
17.625         	4.00772110e-01	1.97633880e-05	2.37103650e-05	9.52663500e-05	0.00000000e+00
17.63          	2.33383090e-01	1.96079490e-05	2.34280420e-05	1.05230100e-04	0.00000000e+00
17.635         	4.66637880e-01	1.94525190e-05	2.31460160e-05	9.67817040e-05	0.00000000e+00
17.64          	1.56972180e-01	1.92971020e-05	2.28642910e-05	9.18966320e-05	0.00000000e+00
17.645         	2.49579560e-01	1.91416940e-05	2.25828640e-05	1.15602240e-04	0.00000000e+00
17.65          	1.05518960e-01	1.89863000e-05	2.23017430e-05	1.30412410e-04	0.00000000e+00
17.655         	8.22152680e-02	1.88309250e-05	2.20209330e-05	9.66677900e-05	0.00000000e+00
17.66          	1.17880770e-01	1.86755640e-05	2.17404310e-05	1.37244310e-04	0.00000000e+00
17.665         	2.19217770e-01	1.85202270e-05	2.14602480e-05	1.36643210e-04	0.00000000e+00
17.67          	9.12167640e-02	1.83649100e-05	2.11803810e-05	9.46444480e-05	0.00000000e+00
17.675         	3.78875890e-01	1.82096180e-05	2.09008340e-05	1.07936150e-04	0.00000000e+00
17.68          	1.78852890e-01	1.80543490e-05	2.06216100e-05	1.10101330e-04	0.00000000e+00
17.685         	8.80610700e-02	1.78991110e-05	2.03427140e-05	1.33646790e-04	0.00000000e+00
17.69          	1.10203770e-01	1.77439050e-05	2.00641530e-05	1.58724530e-04	0.00000000e+00
17.695         	1.78085280e-01	1.75887290e-05	1.97859220e-05	1.04132360e-04	0.00000000e+00
17.7           	1.55185370e-01	1.74335880e-05	1.95080280e-05	1.29847770e-04	0.00000000e+00
17.705         	9.20151270e-02	1.72784830e-05	1.92304760e-05	1.54709160e-04	0.00000000e+00
17.71          	1.79462690e-01	1.71234180e-05	1.89532670e-05	1.47750380e-04	0.00000000e+00
17.715         	1.59246060e-01	1.69683920e-05	1.86764040e-05	1.53319540e-04	0.00000000e+00
17.72          	1.05974510e-01	1.68134100e-05	1.83998910e-05	1.61748290e-04	0.00000000e+00
17.725         	1.19679750e-01	1.66584740e-05	1.81237330e-05	1.58891700e-04	0.00000000e+00
17.73          	2.49806000e-01	1.65035810e-05	1.78479270e-05	1.10985190e-04	0.00000000e+00
17.735         	1.88890870e-01	1.63487400e-05	1.75724830e-05	1.26494410e-04	0.00000000e+00
17.74          	1.07065080e-01	1.61939480e-05	1.72974000e-05	1.26798020e-04	0.00000000e+00
17.745         	1.15054540e-01	1.60392090e-05	1.70226820e-05	1.07281130e-04	0.00000000e+00
17.75          	3.53680000e-01	1.58845230e-05	1.67483310e-05	1.31883570e-04	0.00000000e+00
17.755         	4.79508680e-01	1.57298950e-05	1.64743510e-05	1.12260150e-04	0.00000000e+00
17.76          	1.15623770e-01	1.55753220e-05	1.62007440e-05	8.42595210e-05	0.00000000e+00
17.765         	1.84399460e-01	1.54208140e-05	1.59275160e-05	6.48695250e-05	0.00000000e+00
17.77          	1.30181880e-01	1.52663670e-05	1.56546680e-05	1.41479130e-04	0.00000000e+00
17.775         	1.09199150e-01	1.51119820e-05	1.53822010e-05	1.04167240e-04	0.00000000e+00
17.78          	1.24111440e-01	1.49576670e-05	1.51101230e-05	1.02306470e-04	0.00000000e+00
17.785         	2.44151400e-01	1.48034190e-05	1.48384330e-05	6.62200440e-05	0.00000000e+00
17.79          	1.28503630e-01	1.46492410e-05	1.45671340e-05	1.02602710e-04	0.00000000e+00
17.795         	1.20007760e-01	1.44951350e-05	1.42962300e-05	8.66511310e-05	0.00000000e+00
17.8           	1.53407860e-01	1.43411030e-05	1.40257240e-05	8.71955940e-05	0.00000000e+00
17.805         	1.67196730e-01	1.41871450e-05	1.37556160e-05	9.51818090e-05	0.00000000e+00
17.81          	1.15748220e-01	1.40332690e-05	1.34859150e-05	7.75189150e-05	0.00000000e+00
17.815         	1.12823440e-01	1.38794710e-05	1.32166200e-05	8.61609130e-05	0.00000000e+00
17.82          	1.65418660e-01	1.37257550e-05	1.29477340e-05	1.06944360e-04	0.00000000e+00
17.825         	1.07618430e-01	1.35721210e-05	1.26792580e-05	9.29807360e-05	0.00000000e+00
17.83          	7.79578460e-02	1.34185740e-05	1.24111980e-05	8.76125120e-05	0.00000000e+00
17.835         	1.11340870e-01	1.32651160e-05	1.21435580e-05	9.39023640e-05	0.00000000e+00
17.84          	1.04825160e-01	1.31117450e-05	1.18763360e-05	7.81483210e-05	0.00000000e+00
17.845         	1.38522670e-01	1.29584660e-05	1.16095380e-05	1.02074360e-04	0.00000000e+00
17.85          	8.04315870e-02	1.28052820e-05	1.13431680e-05	7.78668970e-05	0.00000000e+00
17.855         	1.91634100e-01	1.26521900e-05	1.10772240e-05	7.32448910e-05	0.00000000e+00
17.86          	1.09597640e-01	1.24991960e-05	1.08117140e-05	5.03178130e-05	0.00000000e+00
17.865         	7.32093830e-02	1.23463020e-05	1.05466370e-05	1.10793700e-04	0.00000000e+00
17.87          	7.10708270e-02	1.21935090e-05	1.02820000e-05	7.91987220e-05	0.00000000e+00
17.875         	1.30863140e-01	1.20408180e-05	1.00178020e-05	5.38401210e-05	0.00000000e+00
17.88          	1.59996110e-01	1.18882300e-05	9.75404450e-06	7.40655930e-05	0.00000000e+00
17.885         	1.77072360e-01	1.17357490e-05	9.49073360e-06	6.18717380e-05	0.00000000e+00
17.89          	1.50847730e-01	1.15833770e-05	9.22787220e-06	7.59897950e-05	0.00000000e+00
17.895         	1.24373360e-01	1.14311150e-05	8.96546090e-06	7.62607090e-05	0.00000000e+00
17.9           	1.55751430e-01	1.12789630e-05	8.70350170e-06	8.83451010e-05	0.00000000e+00
17.905         	2.44502850e-01	1.11269250e-05	8.44199940e-06	8.28752470e-05	0.00000000e+00
17.91          	5.12711540e-01	1.09750040e-05	8.18095710e-06	1.10393270e-04	0.00000000e+00
17.915         	2.01044420e-01	1.08231980e-05	7.92037460e-06	8.00235080e-05	0.00000000e+00
17.92          	1.15817940e-01	1.06715120e-05	7.66025660e-06	5.94406880e-05	0.00000000e+00
17.925         	6.57676250e-02	1.05199480e-05	7.40060640e-06	5.36265800e-05	0.00000000e+00
17.93          	2.52539910e-01	1.03685060e-05	7.14142480e-06	6.86934720e-05	0.00000000e+00
17.935         	1.18648130e-01	1.02171870e-05	6.88271400e-06	8.22928570e-05	0.00000000e+00
17.94          	1.73462910e-01	1.00659950e-05	6.62447810e-06	6.11223670e-05	0.00000000e+00
17.945         	4.07031540e-01	9.91493230e-06	6.36672020e-06	7.34137870e-05	0.00000000e+00
17.95          	1.29857320e-01	9.76399870e-06	6.10944120e-06	1.12023220e-04	0.00000000e+00
17.955         	1.97490100e-01	9.61319520e-06	5.85264340e-06	9.19329730e-05	0.00000000e+00
17.96          	1.57473230e-01	9.46252580e-06	5.59633060e-06	1.03409120e-04	0.00000000e+00
17.965         	8.55582960e-02	9.31199170e-06	5.34050500e-06	1.33510880e-04	0.00000000e+00
17.97          	1.20077450e-01	9.16159570e-06	5.08516970e-06	1.89118070e-04	0.00000000e+00
17.975         	4.66924680e-01	9.01133760e-06	4.83032600e-06	1.86569880e-04	0.00000000e+00
17.98          	1.25983410e-01	8.86121830e-06	4.57597610e-06	1.77463060e-04	0.00000000e+00
17.985         	1.80351990e-01	8.71124300e-06	4.32212400e-06	2.06918000e-04	0.00000000e+00
17.99          	4.49972840e-01	8.56141100e-06	4.06877110e-06	1.58852540e-04	0.00000000e+00
17.995         	1.38472780e-01	8.41172430e-06	3.81591990e-06	2.05198060e-04	0.00000000e+00
18             	2.19832550e-01	8.26218380e-06	3.56357250e-06	1.60431440e-04	0.00000000e+00
18.005         	9.58832770e-02	8.11279300e-06	3.31173210e-06	2.00841850e-04	0.00000000e+00
18.01          	1.38091300e-01	7.96355420e-06	3.06040130e-06	2.90412280e-04	0.00000000e+00
18.015         	2.92447540e-01	7.81446710e-06	2.80958160e-06	2.09004050e-04	0.00000000e+00
18.02          	3.23459240e-01	7.66553300e-06	2.55927530e-06	2.01251670e-04	0.00000000e+00
18.025         	1.36745120e-01	7.51675630e-06	2.30948570e-06	2.24055540e-04	0.00000000e+00
18.03          	1.93232650e-01	7.36813660e-06	2.06021450e-06	2.15305550e-04	0.00000000e+00
18.035         	1.48520540e-01	7.21967500e-06	1.81146370e-06	2.16759060e-04	0.00000000e+00
18.04          	7.03330420e-02	7.07137490e-06	1.56323630e-06	2.40773200e-04	0.00000000e+00
18.045         	1.39599010e-01	6.92323750e-06	1.31553450e-06	2.50124580e-04	0.00000000e+00
18.05          	1.87976210e-01	6.77526440e-06	1.06836040e-06	2.01877450e-04	0.00000000e+00
18.055         	8.64428940e-02	6.62745720e-06	8.21716270e-07	2.00245790e-04	0.00000000e+00
18.06          	3.07888680e-01	6.47952670e-06	3.02445080e-07	1.36603460e-04	0.00000000e+00
18.065         	1.00978450e-01	6.33176510e-06	1.39264720e-07	1.41654280e-04	0.00000000e+00
18.07          	1.27954590e-01	6.18426980e-06	8.51540750e-08	1.25864330e-04	0.00000000e+00
18.075         	9.59529410e-02	6.03707410e-06	2.33815500e-07	7.31508970e-05	0.00000000e+00
18.08          	1.75504960e-01	5.89018700e-06	3.93044010e-07	7.64573690e-05	0.00000000e+00
18.085         	5.31216820e-01	5.74361220e-06	5.52078830e-07	8.26694460e-05	0.00000000e+00
18.09          	3.32754200e-01	5.59734980e-06	7.10919950e-07	1.39960280e-04	0.00000000e+00
18.095         	9.83566060e-02	5.45140120e-06	8.69567490e-07	1.39295500e-04	0.00000000e+00
18.1           	4.10344840e-01	5.30576580e-06	1.02802160e-06	1.33812600e-04	0.00000000e+00
18.105         	4.48166750e-01	5.16004890e-06	1.52801860e-06	1.18686880e-04	0.00000000e+00
18.11          	1.72348640e-01	5.01432560e-06	1.85157380e-06	1.23754920e-04	0.00000000e+00
18.115         	2.75470760e-01	4.86868910e-06	2.11592420e-06	1.86295230e-04	0.00000000e+00
18.12          	9.18828440e-02	4.72319460e-06	2.36016360e-06	1.80733450e-04	0.00000000e+00
18.125         	2.99528560e-01	4.57787120e-06	2.59835330e-06	1.95244130e-04	0.00000000e+00
18.13          	2.35723770e-01	4.43272950e-06	2.83647220e-06	1.59366380e-04	0.00000000e+00
18.135         	1.28619420e-01	4.28777700e-06	3.07331840e-06	2.02851030e-04	0.00000000e+00
18.14          	1.68393200e-01	4.14301760e-06	3.30936460e-06	1.78177420e-04	0.00000000e+00
18.145         	1.87475920e-01	3.99845160e-06	3.54476580e-06	1.57462550e-04	0.00000000e+00
18.15          	1.35355250e-01	3.85408280e-06	3.77957400e-06	1.25712520e-04	0.00000000e+00
18.155         	1.46176990e-01	3.70991110e-06	4.01380330e-06	1.73250060e-04	0.00000000e+00
18.16          	7.36222490e-02	3.56593920e-06	4.24745840e-06	1.32527240e-04	0.00000000e+00
18.165         	1.62361860e-01	3.42216850e-06	4.48053920e-06	1.76322810e-04	0.00000000e+00
18.17          	1.15753530e-01	3.27860100e-06	4.71304480e-06	1.28813710e-04	0.00000000e+00
18.175         	1.63190210e-01	3.13523680e-06	4.94497190e-06	1.45844840e-04	0.00000000e+00
18.18          	2.62029150e-01	2.99207900e-06	5.17632030e-06	1.14512070e-04	0.00000000e+00
18.185         	1.46418910e-01	2.84912760e-06	5.40708650e-06	1.06463660e-04	0.00000000e+00
18.19          	1.27885060e-01	2.70638570e-06	5.63727020e-06	1.47563120e-04	0.00000000e+00
18.195         	4.09666130e-01	2.56385370e-06	5.86686840e-06	1.26341970e-04	0.00000000e+00
18.2           	1.17112680e-01	2.42153330e-06	6.09587920e-06	1.33095830e-04	0.00000000e+00
18.205         	2.41810830e-01	2.27942570e-06	6.32430020e-06	1.45086440e-04	0.00000000e+00
18.21          	2.15346560e-01	2.13792100e-06	6.55213150e-06	1.32954700e-04	0.00000000e+00
18.215         	2.14270450e-01	2.00437290e-06	6.77960950e-06	8.21768070e-05	0.00000000e+00
18.22          	1.69506310e-01	1.87193100e-06	7.00758050e-06	1.04050490e-04	0.00000000e+00
18.225         	1.70262220e-01	1.75214210e-06	7.23495290e-06	1.39072810e-04	0.00000000e+00
18.23          	1.20005150e-01	1.63988520e-06	7.46172270e-06	1.01475970e-04	0.00000000e+00
18.235         	1.70663920e-01	1.53662510e-06	7.68789070e-06	1.39851460e-04	0.00000000e+00
18.24          	8.65532210e-02	1.44286490e-06	7.91345320e-06	1.09715470e-04	0.00000000e+00
18.245         	1.02993180e-01	1.35874460e-06	8.13840890e-06	1.66062490e-04	0.00000000e+00
18.25          	1.43913870e-01	1.28440880e-06	8.36275600e-06	9.66245080e-05	0.00000000e+00
18.255         	9.38201010e-02	1.22001720e-06	8.58649280e-06	7.63086370e-05	0.00000000e+00
18.26          	2.98037220e-01	1.16565150e-06	8.80961640e-06	8.46719680e-05	0.00000000e+00
18.265         	1.27051130e-01	1.12141190e-06	9.03212690e-06	1.30447360e-04	0.00000000e+00
18.27          	1.43125610e-01	1.08726410e-06	9.25402210e-06	1.38189440e-04	0.00000000e+00
18.275         	1.73916510e-01	1.06323690e-06	9.47530130e-06	8.91451560e-05	0.00000000e+00
18.28          	2.69190790e-01	1.04945740e-06	9.69596080e-06	8.09175410e-05	0.00000000e+00
18.285         	1.71274580e-01	1.04576220e-06	9.91599940e-06	1.38789120e-04	0.00000000e+00
18.29          	2.76834250e-01	1.05182910e-06	1.01354160e-05	1.07958970e-04	0.00000000e+00
18.295         	9.45699220e-02	1.06758250e-06	1.03542070e-05	8.25947460e-05	0.00000000e+00
18.3           	4.42715660e-01	1.09272390e-06	1.05723730e-05	7.25637750e-05	0.00000000e+00
18.305         	1.49007760e-01	1.12721800e-06	1.07899120e-05	9.18950990e-05	0.00000000e+00
18.31          	1.47000870e-01	1.17071340e-06	1.10068220e-05	6.20347910e-05	0.00000000e+00
18.315         	1.63667570e-01	1.22304870e-06	1.12231020e-05	7.06607940e-05	0.00000000e+00
18.32          	1.46772710e-01	1.28399040e-06	1.14387490e-05	6.81336910e-05	0.00000000e+00
18.325         	6.90440820e-02	1.35320700e-06	1.16537650e-05	9.18590870e-05	0.00000000e+00
18.33          	1.93329490e-01	1.43041700e-06	1.18681420e-05	6.57344320e-05	0.00000000e+00
18.335         	1.61746870e-01	1.51535020e-06	1.20818850e-05	1.21095890e-04	0.00000000e+00
18.34          	1.38578140e-01	1.60758690e-06	1.22949870e-05	5.62354350e-05	0.00000000e+00
18.345         	1.13158360e-01	1.70678870e-06	1.25074500e-05	8.25492230e-05	0.00000000e+00
18.35          	2.61718990e-01	1.81244960e-06	1.27192740e-05	3.76222770e-05	0.00000000e+00
18.355         	5.63066990e-01	1.92412040e-06	1.29304530e-05	4.88177120e-05	0.00000000e+00
18.36          	1.36835330e-01	2.04119150e-06	1.31409860e-05	6.63599010e-05	0.00000000e+00
18.365         	1.00921730e-01	2.16299510e-06	1.33508760e-05	6.79125310e-05	0.00000000e+00
18.37          	1.15322560e-01	2.28929760e-06	1.35601160e-05	6.14663520e-05	0.00000000e+00
18.375         	2.46739610e-01	2.41985540e-06	1.37687080e-05	7.49303430e-05	0.00000000e+00
18.38          	2.43764580e-01	2.55286130e-06	1.39766510e-05	1.01534550e-04	0.00000000e+00
18.385         	1.32094970e-01	2.68609910e-06	1.41839400e-05	7.90302360e-05	0.00000000e+00
18.39          	4.76840240e-01	2.81907340e-06	1.43905790e-05	9.75818540e-05	0.00000000e+00
18.395         	9.39883400e-02	2.95178280e-06	1.45965620e-05	6.07979370e-05	0.00000000e+00
18.4           	1.02624320e-01	3.08422600e-06	1.48018880e-05	9.84501630e-05	0.00000000e+00
18.405         	1.94459360e-01	3.21640180e-06	1.50065580e-05	5.32691540e-05	0.00000000e+00
18.41          	7.33664310e-02	3.34830860e-06	1.52105660e-05	7.11969220e-05	0.00000000e+00
18.415         	2.37122650e-01	3.47994580e-06	1.54139160e-05	4.83089050e-05	0.00000000e+00
18.42          	2.08061900e-01	3.61131190e-06	1.56166050e-05	6.83927750e-05	0.00000000e+00
18.425         	1.49286710e-01	3.74240600e-06	1.58186330e-05	1.06168390e-04	0.00000000e+00
18.43          	1.63067790e-01	3.87322640e-06	1.60199960e-05	6.62278670e-05	0.00000000e+00
18.435         	1.65654430e-01	4.00377210e-06	1.62206920e-05	1.38690020e-04	0.00000000e+00
18.44          	2.30396420e-01	4.13404170e-06	1.64207230e-05	7.73714810e-05	0.00000000e+00
18.445         	4.86853040e-01	4.26403420e-06	1.66200850e-05	1.25079190e-04	0.00000000e+00
18.45          	1.35281210e-01	4.39383240e-06	1.68187780e-05	1.13180170e-04	0.00000000e+00
18.455         	2.00682630e-01	4.52348560e-06	1.70167980e-05	9.02130840e-05	0.00000000e+00
18.46          	1.11536650e-01	4.65285790e-06	1.72141480e-05	1.11053570e-04	0.00000000e+00
18.465         	9.81382620e-02	4.78194800e-06	1.74108260e-05	1.01742160e-04	0.00000000e+00
18.47          	2.19626440e-01	4.91075470e-06	1.76068300e-05	1.74958860e-04	0.00000000e+00
18.475         	1.11325690e-01	5.03927670e-06	1.78021580e-05	1.06635860e-04	0.00000000e+00
18.48          	1.34326370e-01	5.16751300e-06	1.79968100e-05	1.10018570e-04	0.00000000e+00
18.485         	5.92483450e-02	5.29546230e-06	1.81907840e-05	9.67306630e-05	0.00000000e+00
18.49          	2.52498780e-01	5.42312410e-06	1.83840810e-05	1.04958700e-04	0.00000000e+00
18.495         	3.44118160e-01	5.55049640e-06	1.85766970e-05	1.50977020e-04	0.00000000e+00
18.5           	1.02844880e-01	5.67757760e-06	1.87686290e-05	1.30671980e-04	0.00000000e+00
18.505         	1.39624190e-01	5.80436830e-06	1.89598830e-05	1.50363520e-04	0.00000000e+00
18.51          	4.00989240e-01	5.93086620e-06	1.91504520e-05	1.66378960e-04	0.00000000e+00
18.515         	2.63932750e-01	6.05707020e-06	1.93403360e-05	1.21933310e-04	0.00000000e+00
18.52          	3.40735410e-01	6.18297950e-06	1.95295340e-05	1.00337980e-04	0.00000000e+00
18.525         	1.48816080e-01	6.30859210e-06	1.97180430e-05	1.15231830e-04	0.00000000e+00
18.53          	1.14542010e-01	6.43390820e-06	1.99058660e-05	7.82660830e-05	0.00000000e+00
18.535         	1.35926080e-01	6.55892710e-06	2.00930030e-05	1.28149950e-04	0.00000000e+00
18.54          	2.08694220e-01	6.68364640e-06	2.02794490e-05	1.74899210e-04	0.00000000e+00
18.545         	9.35458320e-02	6.80806460e-06	2.04652010e-05	1.78312010e-04	0.00000000e+00
18.55          	2.49684780e-01	6.93218200e-06	2.06502630e-05	1.60924110e-04	0.00000000e+00
18.555         	1.31059170e-01	7.05599800e-06	2.08346320e-05	1.46613480e-04	0.00000000e+00
18.56          	1.93467810e-01	7.17953610e-06	2.10183070e-05	1.11308910e-04	0.00000000e+00
18.565         	1.07446870e-01	7.30277040e-06	2.12012910e-05	1.04436120e-04	0.00000000e+00
18.57          	9.22202310e-02	7.42569880e-06	2.13835770e-05	1.39947490e-04	0.00000000e+00
18.575         	1.19461920e-01	7.54832030e-06	2.15651650e-05	1.13199020e-04	0.00000000e+00
18.58          	1.58443210e-01	7.67063340e-06	2.17460530e-05	9.49185420e-05	0.00000000e+00
18.585         	1.61472450e-01	7.79263830e-06	2.19262440e-05	1.15199430e-04	0.00000000e+00
18.59          	1.11406070e-01	7.91433370e-06	2.21057360e-05	8.23641870e-05	0.00000000e+00
18.595         	1.62184750e-01	8.03571860e-06	2.22845270e-05	1.31178620e-04	0.00000000e+00
18.6           	1.00048950e-01	8.15679260e-06	2.24626210e-05	7.03696560e-05	0.00000000e+00
18.605         	3.68041800e-01	8.27755250e-06	2.26400070e-05	5.62834220e-05	0.00000000e+00
18.61          	1.20340420e-01	8.39799910e-06	2.28166920e-05	1.15037100e-04	0.00000000e+00
18.615         	1.42696660e-01	8.51813210e-06	2.29926750e-05	1.22264510e-04	0.00000000e+00
18.62          	5.75175510e-02	8.63794800e-06	2.31679500e-05	6.71864560e-05	0.00000000e+00
18.625         	2.63181630e-01	8.75744870e-06	2.33425230e-05	8.30394670e-05	0.00000000e+00
18.63          	2.09043640e-01	8.87663030e-06	2.35163850e-05	7.90655460e-05	0.00000000e+00
18.635         	8.15600390e-02	8.99549390e-06	2.36895410e-05	1.35683280e-04	0.00000000e+00
18.64          	2.82493180e-01	9.11403810e-06	2.38619900e-05	4.68384340e-05	0.00000000e+00
18.645         	2.09952080e-01	9.23226300e-06	2.40337330e-05	9.78956730e-05	0.00000000e+00
18.65          	2.22295840e-01	9.35016580e-06	2.42047640e-05	1.01357890e-04	0.00000000e+00
18.655         	3.85187550e-01	9.46774610e-06	2.43750850e-05	5.40350070e-05	0.00000000e+00
18.66          	1.07805290e-01	9.58500200e-06	2.45446910e-05	7.83228390e-05	0.00000000e+00
18.665         	1.28488940e-01	9.70193550e-06	2.47135900e-05	8.29117860e-05	0.00000000e+00
18.67          	9.62270770e-02	9.81854240e-06	2.48817730e-05	5.64463660e-05	0.00000000e+00
18.675         	1.38001820e-01	9.93482370e-06	2.50492430e-05	9.00783330e-05	0.00000000e+00
18.68          	3.37830550e-01	1.00507800e-05	2.52160040e-05	7.30575450e-05	0.00000000e+00
18.685         	7.73332370e-02	1.01664070e-05	2.53820470e-05	7.15862820e-05	0.00000000e+00
18.69          	1.21271640e-01	1.02817050e-05	2.55473750e-05	7.17077640e-05	0.00000000e+00
18.695         	1.34228240e-01	1.03966730e-05	2.57119840e-05	9.32834570e-05	0.00000000e+00
18.7           	1.28500970e-01	1.05113110e-05	2.58758770e-05	6.15896490e-05	0.00000000e+00
18.705         	1.74760410e-01	1.06256190e-05	2.60390580e-05	7.93103230e-05	0.00000000e+00
18.71          	1.00843830e-01	1.07395940e-05	2.62015180e-05	1.28030560e-04	0.00000000e+00
18.715         	1.44249590e-01	1.08532340e-05	2.63632570e-05	9.61207400e-05	0.00000000e+00
18.72          	1.04034660e-01	1.09665430e-05	2.65242810e-05	7.10133190e-05	0.00000000e+00
18.725         	1.35371720e-01	1.10795160e-05	2.66845840e-05	8.88813420e-05	0.00000000e+00
18.73          	9.38568020e-02	1.11921530e-05	2.68441660e-05	1.07746380e-04	0.00000000e+00
18.735         	2.22986420e-01	1.13044540e-05	2.70030270e-05	6.84274840e-05	0.00000000e+00
18.74          	8.23812870e-02	1.14164180e-05	2.71611670e-05	5.00787130e-05	0.00000000e+00
18.745         	7.88853510e-02	1.15280420e-05	2.73185810e-05	8.05888070e-05	0.00000000e+00
18.75          	6.21919180e-02	1.16393300e-05	2.74752790e-05	6.09728230e-05	0.00000000e+00
18.755         	1.94872020e-01	1.17502760e-05	2.76312490e-05	7.29049530e-05	0.00000000e+00
18.76          	1.00063480e-01	1.18608820e-05	2.77864960e-05	4.90227970e-05	0.00000000e+00
18.765         	1.92201600e-01	1.19711470e-05	2.79410210e-05	7.39877470e-05	0.00000000e+00
18.77          	2.11673520e-01	1.20810700e-05	2.80948210e-05	1.15629720e-04	0.00000000e+00
18.775         	1.40485830e-01	1.21906500e-05	2.82478960e-05	1.08540570e-04	0.00000000e+00
18.78          	4.03123480e-01	1.22998880e-05	2.84002490e-05	6.06494540e-05	0.00000000e+00
18.785         	9.21133810e-02	1.24087800e-05	2.85518740e-05	7.71343250e-05	0.00000000e+00
18.79          	4.40587790e-01	1.25173250e-05	2.87027680e-05	1.40001930e-04	0.00000000e+00
18.795         	1.21573960e-01	1.26255260e-05	2.88529380e-05	1.08633540e-04	0.00000000e+00
18.8           	1.47611090e-01	1.27333800e-05	2.90023810e-05	5.73139000e-05	0.00000000e+00
18.805         	1.38213680e-01	1.28408880e-05	2.91511010e-05	9.39180220e-05	0.00000000e+00
18.81          	1.10696180e-01	1.29480450e-05	2.92990860e-05	7.50618260e-05	0.00000000e+00
18.815         	2.09864700e-01	1.30548540e-05	2.94463450e-05	1.07585050e-04	0.00000000e+00
18.82          	1.69184670e-01	1.31613140e-05	2.95928760e-05	8.36694810e-05	0.00000000e+00
18.825         	7.13729510e-02	1.32674230e-05	2.97386770e-05	1.01004110e-04	0.00000000e+00
18.83          	6.74208000e-02	1.33731820e-05	2.98837530e-05	8.97003780e-05	0.00000000e+00
18.835         	4.83654820e-01	1.34785880e-05	3.00280930e-05	8.80966990e-05	0.00000000e+00
18.84          	2.19137450e-01	1.35836410e-05	3.01717050e-05	9.06745660e-05	0.00000000e+00
18.845         	2.62828510e-01	1.36883430e-05	3.03145900e-05	9.49510080e-05	0.00000000e+00
18.85          	2.91900420e-01	1.37926900e-05	3.04567430e-05	7.64613160e-05	0.00000000e+00
18.855         	1.50788170e-01	1.38966830e-05	3.05981640e-05	1.25820160e-04	0.00000000e+00
18.86          	2.30515630e-01	1.40003190e-05	3.07388530e-05	1.12848390e-04	0.00000000e+00
18.865         	1.46614620e-01	1.41036000e-05	3.08788100e-05	9.58023750e-05	0.00000000e+00
18.87          	1.10815160e-01	1.42065240e-05	3.10180360e-05	8.10540790e-05	0.00000000e+00
18.875         	1.13070020e-01	1.43090910e-05	3.11565290e-05	8.33155240e-05	0.00000000e+00
18.88          	2.11953310e-01	1.44112980e-05	3.12942860e-05	9.43072970e-05	0.00000000e+00
18.885         	2.24901300e-01	1.45131500e-05	3.14313170e-05	6.10307070e-05	0.00000000e+00
18.89          	1.93608230e-01	1.46146410e-05	3.15676140e-05	8.36670510e-05	0.00000000e+00
18.895         	7.11654540e-02	1.47157710e-05	3.17031730e-05	6.41478880e-05	0.00000000e+00
18.9           	1.44245610e-01	1.48165430e-05	3.18380060e-05	5.99280510e-05	0.00000000e+00
18.905         	1.18408180e-01	1.49169530e-05	3.19721030e-05	8.31571160e-05	0.00000000e+00
18.91          	1.44687410e-01	1.50170010e-05	3.21054670e-05	5.40012520e-05	0.00000000e+00
18.915         	2.16278060e-01	1.51166840e-05	3.22380920e-05	5.92397580e-05	0.00000000e+00
18.92          	1.40216190e-01	1.52160080e-05	3.23699900e-05	5.65372600e-05	0.00000000e+00
18.925         	1.72126940e-01	1.53149670e-05	3.25011520e-05	4.06156230e-05	0.00000000e+00
18.93          	1.24456500e-01	1.54135620e-05	3.26315800e-05	6.49268490e-05	0.00000000e+00
18.935         	1.09290880e-01	1.55117930e-05	3.27612730e-05	5.84768210e-05	0.00000000e+00
18.94          	1.49327480e-01	1.56096560e-05	3.28902280e-05	5.90835160e-05	0.00000000e+00
18.945         	1.22820630e-01	1.57071560e-05	3.30184560e-05	7.68144490e-05	0.00000000e+00
18.95          	1.49960880e-01	1.58042880e-05	3.31459460e-05	5.99318390e-05	0.00000000e+00
18.955         	1.19654130e-01	1.59010540e-05	3.32727020e-05	6.80231490e-05	0.00000000e+00
18.96          	1.33208820e-01	1.59974500e-05	3.33987190e-05	7.83534410e-05	0.00000000e+00
18.965         	1.52292930e-01	1.60934810e-05	3.35240080e-05	9.33746260e-05	0.00000000e+00
18.97          	1.12517410e-01	1.61891410e-05	3.36485560e-05	1.35856200e-04	0.00000000e+00
18.975         	1.28974020e-01	1.62844340e-05	3.37723760e-05	8.91856710e-05	0.00000000e+00
18.98          	3.69087000e-01	1.63793540e-05	3.38954550e-05	1.16748010e-04	0.00000000e+00
18.985         	1.62259250e-01	1.64739060e-05	3.40178010e-05	8.78176140e-05	0.00000000e+00
18.99          	1.16313320e-01	1.65680870e-05	3.41394130e-05	8.82864050e-05	0.00000000e+00
18.995         	1.15416700e-01	1.66618980e-05	3.42602950e-05	8.76028600e-05	0.00000000e+00
19             	1.30313150e-01	1.67553370e-05	3.43804390e-05	6.50878750e-05	0.00000000e+00
19.005         	1.61546960e-01	1.68484010e-05	3.44998440e-05	8.62626480e-05	0.00000000e+00
19.01          	4.16659940e-01	1.69410950e-05	3.46185200e-05	8.87393970e-05	0.00000000e+00
19.015         	1.23161340e-01	1.70334130e-05	3.47364560e-05	8.12757440e-05	0.00000000e+00
19.02          	2.09924470e-01	1.71253610e-05	3.48536640e-05	1.01478120e-04	0.00000000e+00
19.025         	1.18266440e-01	1.72169330e-05	3.49701350e-05	9.14840880e-05	0.00000000e+00
19.03          	1.73645720e-01	1.73081300e-05	3.50858710e-05	1.33708860e-04	0.00000000e+00
19.035         	4.46497300e-01	1.73989500e-05	3.52008680e-05	9.08048010e-05	0.00000000e+00
19.04          	8.01317500e-02	1.74893970e-05	3.53151380e-05	9.69619620e-05	0.00000000e+00
19.045         	2.81449010e-01	1.75794650e-05	3.54286670e-05	1.50081800e-04	0.00000000e+00
19.05          	1.07099980e-01	1.76691600e-05	3.55414700e-05	7.54813250e-05	0.00000000e+00
19.055         	2.05914590e-01	1.77584780e-05	3.56535360e-05	1.39289420e-04	0.00000000e+00
19.06          	4.80128350e-01	1.78474150e-05	3.57648640e-05	1.04216750e-04	0.00000000e+00
19.065         	2.67416610e-01	1.79359750e-05	3.58754600e-05	1.17845110e-04	0.00000000e+00
19.07          	1.13317330e-01	1.80241580e-05	3.59853250e-05	1.52423890e-04	0.00000000e+00
19.075         	1.67889490e-01	1.81119650e-05	3.60944610e-05	1.71465280e-04	0.00000000e+00
19.08          	1.91476230e-01	1.81993910e-05	3.62028610e-05	1.56092430e-04	0.00000000e+00
19.085         	1.39481430e-01	1.82864350e-05	3.63105220e-05	2.44296350e-04	0.00000000e+00
19.09          	1.87911490e-01	1.83731000e-05	3.64174540e-05	2.31679520e-04	0.00000000e+00
19.095         	9.67182650e-02	1.84593850e-05	3.65236540e-05	1.56410900e-04	0.00000000e+00
19.1           	6.20833910e-02	1.85452900e-05	3.66291230e-05	1.53318530e-04	0.00000000e+00
19.105         	1.36779050e-01	1.86308160e-05	3.67338640e-05	1.68997190e-04	0.00000000e+00
19.11          	1.34328870e-01	1.87159580e-05	3.68378660e-05	1.74228510e-04	0.00000000e+00
19.115         	3.95359990e-01	1.88007180e-05	3.69411390e-05	1.58618990e-04	0.00000000e+00
19.12          	9.15669540e-02	1.88850960e-05	3.70436810e-05	1.45327710e-04	0.00000000e+00
19.125         	1.70671790e-01	1.89690930e-05	3.71454920e-05	1.77932360e-04	0.00000000e+00
19.13          	1.00748950e-01	1.90527060e-05	3.72465730e-05	2.15824970e-04	0.00000000e+00
19.135         	4.10451000e-01	1.91359360e-05	3.73469240e-05	1.61260820e-04	0.00000000e+00
19.14          	1.04008600e-01	1.92187830e-05	3.74465450e-05	1.65160050e-04	0.00000000e+00
19.145         	4.37343130e-01	1.93012480e-05	3.75454410e-05	2.12511730e-04	0.00000000e+00
19.15          	1.08685160e-01	1.93833270e-05	3.76436040e-05	1.86318150e-04	0.00000000e+00
19.155         	1.48233150e-01	1.94650220e-05	3.77410370e-05	2.56705810e-04	0.00000000e+00
19.16          	1.68086820e-01	1.95463290e-05	3.78377370e-05	1.71948050e-04	0.00000000e+00
19.165         	4.00031530e-01	1.96272520e-05	3.79337110e-05	1.73550440e-04	0.00000000e+00
19.17          	2.70418570e-01	1.97077910e-05	3.80289580e-05	1.53714780e-04	0.00000000e+00
19.175         	9.48083440e-02	1.97879430e-05	3.81234780e-05	1.34252950e-04	0.00000000e+00
19.18          	1.29307800e-01	1.98677130e-05	3.82172750e-05	2.01645580e-04	0.00000000e+00
19.185         	1.60805350e-01	1.99470940e-05	3.83103430e-05	1.35553280e-04	0.00000000e+00
19.19          	1.46983800e-01	2.00260860e-05	3.84026780e-05	1.46947660e-04	0.00000000e+00
19.195         	2.71032460e-01	2.01046950e-05	3.84942950e-05	1.59165970e-04	0.00000000e+00
19.2           	2.28982980e-01	2.01829140e-05	3.85851790e-05	1.64716080e-04	0.00000000e+00
19.205         	1.14247030e-01	2.02607460e-05	3.86753410e-05	1.10993700e-04	0.00000000e+00
19.21          	1.78433540e-01	2.03381930e-05	3.87647830e-05	1.30335960e-04	0.00000000e+00
19.215         	2.84426610e-01	2.04152510e-05	3.88534980e-05	8.72365870e-05	0.00000000e+00
19.22          	1.39465890e-01	2.04919210e-05	3.89414890e-05	8.16399710e-05	0.00000000e+00
19.225         	1.94626440e-01	2.05681990e-05	3.90287500e-05	1.02535560e-04	0.00000000e+00
19.23          	1.34171950e-01	2.06440930e-05	3.91152970e-05	7.71357020e-05	0.00000000e+00
19.235         	7.25785830e-02	2.07195940e-05	3.92011140e-05	8.22126300e-05	0.00000000e+00
19.24          	1.94415420e-01	2.07947100e-05	3.92862170e-05	9.59900570e-05	0.00000000e+00
19.245         	6.02446390e-02	2.08694340e-05	3.93705910e-05	1.69204360e-04	0.00000000e+00
19.25          	1.81096130e-01	2.09437680e-05	3.94542470e-05	1.49909140e-04	0.00000000e+00
19.255         	1.51184070e-01	2.10177140e-05	3.95371820e-05	1.31910200e-04	0.00000000e+00
19.26          	2.18035000e-01	2.10912700e-05	3.96193990e-05	1.62942240e-04	0.00000000e+00
19.265         	3.07184940e-01	2.11644360e-05	3.97008960e-05	2.01923480e-04	0.00000000e+00
19.27          	4.03114970e-01	2.12372140e-05	3.97816790e-05	9.72109330e-05	0.00000000e+00
19.275         	1.25729500e-01	2.13096000e-05	3.98617410e-05	1.52769870e-04	0.00000000e+00
19.28          	6.83527060e-02	2.13815930e-05	3.99410780e-05	1.40002870e-04	0.00000000e+00
19.285         	1.99954990e-01	2.14531980e-05	4.00197070e-05	1.56208580e-04	0.00000000e+00
19.29          	9.94258650e-02	2.15244120e-05	4.00976170e-05	1.02506470e-04	0.00000000e+00
19.295         	1.78976160e-01	2.15952340e-05	4.01748100e-05	1.09274190e-04	0.00000000e+00
19.3           	1.27399230e-01	2.16656620e-05	4.02512820e-05	1.18732700e-04	0.00000000e+00
19.305         	1.81152560e-01	2.17357030e-05	4.03270480e-05	1.64016260e-04	0.00000000e+00
19.31          	1.44174970e-01	2.18053490e-05	4.04020920e-05	1.06570500e-04	0.00000000e+00
19.315         	1.65873190e-01	2.18746070e-05	4.04764300e-05	7.79834020e-05	0.00000000e+00
19.32          	8.03786110e-02	2.19434710e-05	4.05500530e-05	8.10678590e-05	0.00000000e+00
19.325         	2.11601570e-01	2.20119440e-05	4.06229630e-05	4.96827190e-05	0.00000000e+00
19.33          	1.62430060e-01	2.20800240e-05	4.06951610e-05	4.59040480e-05	0.00000000e+00
19.335         	9.92766480e-02	2.21477100e-05	4.07666430e-05	1.12999910e-04	0.00000000e+00
19.34          	1.45919750e-01	2.22150070e-05	4.08374230e-05	6.64905960e-05	0.00000000e+00
19.345         	1.29613070e-01	2.22819110e-05	4.09074920e-05	8.91781410e-05	0.00000000e+00
19.35          	1.07386790e-01	2.23484200e-05	4.09768450e-05	6.94407420e-05	0.00000000e+00
19.355         	8.67958220e-02	2.24145370e-05	4.10454930e-05	9.38867870e-05	0.00000000e+00
19.36          	2.73004240e-01	2.24802650e-05	4.11134400e-05	1.12388200e-04	0.00000000e+00
19.365         	1.61302870e-01	2.25455960e-05	4.11806720e-05	1.24830310e-04	0.00000000e+00
19.37          	1.27143510e-01	2.26105360e-05	4.12472000e-05	7.16415240e-05	0.00000000e+00
19.375         	1.41003330e-01	2.26750860e-05	4.13130290e-05	6.24001790e-05	0.00000000e+00
19.38          	3.33916030e-01	2.27392380e-05	4.13781440e-05	6.24874170e-05	0.00000000e+00
19.385         	4.66642080e-01	2.28030020e-05	4.14425630e-05	7.51311750e-05	0.00000000e+00
19.39          	1.14725880e-01	2.28663680e-05	4.15062710e-05	7.93957310e-05	0.00000000e+00
19.395         	3.95226060e-01	2.29293430e-05	4.15692800e-05	4.69030620e-05	0.00000000e+00
19.4           	2.81055800e-01	2.29919280e-05	4.16315930e-05	8.21304910e-05	0.00000000e+00
19.405         	2.57910440e-01	2.30541150e-05	4.16931960e-05	5.20154610e-05	0.00000000e+00
19.41          	9.31006190e-02	2.31159130e-05	4.17541070e-05	9.61779880e-05	0.00000000e+00
19.415         	1.15439330e-01	2.31773130e-05	4.18143100e-05	1.16040610e-04	0.00000000e+00
19.42          	2.55532070e-01	2.32383220e-05	4.18738180e-05	7.49090210e-05	0.00000000e+00
19.425         	1.46071180e-01	2.32989410e-05	4.19326340e-05	5.58463610e-05	0.00000000e+00
19.43          	1.18216530e-01	2.33591620e-05	4.19907450e-05	1.27025580e-04	0.00000000e+00
19.435         	2.51158940e-01	2.34189940e-05	4.20481670e-05	8.99753840e-05	0.00000000e+00
19.44          	9.59929370e-02	2.34784280e-05	4.21048860e-05	7.45182480e-05	0.00000000e+00
19.445         	1.77779690e-01	2.35374700e-05	4.21609130e-05	1.16124290e-04	0.00000000e+00
19.45          	7.86416960e-02	2.35961200e-05	4.22162480e-05	1.34604490e-04	0.00000000e+00
19.455         	2.06846390e-01	2.36543800e-05	4.22708950e-05	1.52890260e-04	0.00000000e+00
19.46          	1.10445710e-01	2.37122440e-05	4.23248470e-05	1.23496830e-04	0.00000000e+00
19.465         	8.97254210e-02	2.37697120e-05	4.23781010e-05	1.40096890e-04	0.00000000e+00
19.47          	7.98306390e-02	2.38267910e-05	4.24306740e-05	1.11503570e-04	0.00000000e+00
19.475         	1.01018480e-01	2.38834730e-05	4.24825500e-05	1.12481190e-04	0.00000000e+00
19.48          	2.70163610e-01	2.39397660e-05	4.25337450e-05	1.18207040e-04	0.00000000e+00
19.485         	9.20157410e-02	2.39956620e-05	4.25842440e-05	1.09654150e-04	0.00000000e+00
19.49          	9.35319050e-02	2.40511690e-05	4.26340660e-05	1.35316690e-04	0.00000000e+00
19.495         	1.16215580e-01	2.41062790e-05	4.26831930e-05	1.53716850e-04	0.00000000e+00
19.5           	1.89087020e-01	2.41610010e-05	4.27316440e-05	1.84975770e-04	0.00000000e+00
19.505         	1.68976110e-01	2.42153250e-05	4.27794030e-05	1.26478720e-04	0.00000000e+00
19.51          	1.32859450e-01	2.42692610e-05	4.28264870e-05	1.53482990e-04	0.00000000e+00
19.515         	1.23741150e-01	2.43228010e-05	4.28728800e-05	1.53018130e-04	0.00000000e+00
19.52          	1.35393570e-01	2.43759520e-05	4.29186010e-05	1.05085000e-04	0.00000000e+00
19.525         	6.05491820e-02	2.44287090e-05	4.29636390e-05	1.91864450e-04	0.00000000e+00
19.53          	2.05700500e-01	2.44810730e-05	4.30079980e-05	1.67705850e-04	0.00000000e+00
19.535         	1.50643700e-01	2.45330420e-05	4.30516720e-05	1.53051680e-04	0.00000000e+00
19.54          	1.36505440e-01	2.45846240e-05	4.30946780e-05	2.05825880e-04	0.00000000e+00
19.545         	9.24224440e-02	2.46358130e-05	4.31370050e-05	2.51919380e-04	0.00000000e+00
19.55          	1.39785670e-01	2.46866060e-05	4.31786510e-05	1.73420140e-04	0.00000000e+00
19.555         	2.85201510e-01	2.47370130e-05	4.32196310e-05	2.10654390e-04	0.00000000e+00
19.56          	1.87256880e-01	2.47870260e-05	4.32599360e-05	1.95525070e-04	0.00000000e+00
19.565         	1.59190140e-01	2.48366440e-05	4.32995620e-05	2.15484190e-04	0.00000000e+00
19.57          	1.26961420e-01	2.48858760e-05	4.33385260e-05	1.56343820e-04	0.00000000e+00
19.575         	2.07852500e-01	2.49347120e-05	4.33768110e-05	1.08734360e-04	0.00000000e+00
19.58          	1.82534300e-01	2.49831590e-05	4.34144300e-05	1.64419790e-04	0.00000000e+00
19.585         	2.82615200e-01	2.50312190e-05	4.34513880e-05	1.80996230e-04	0.00000000e+00
19.59          	1.08302490e-01	2.50788820e-05	4.34876700e-05	1.60340450e-04	0.00000000e+00
19.595         	1.18671040e-01	2.51261570e-05	4.35232880e-05	1.61003320e-04	0.00000000e+00
19.6           	1.06681940e-01	2.51730450e-05	4.35582480e-05	1.47863340e-04	0.00000000e+00
19.605         	1.72213670e-01	2.52195370e-05	4.35925350e-05	1.54959110e-04	0.00000000e+00
19.61          	1.21924640e-01	2.52656440e-05	4.36261670e-05	2.27989560e-04	0.00000000e+00
19.615         	9.23846240e-02	2.53113590e-05	4.36591350e-05	1.44971960e-04	0.00000000e+00
19.62          	1.82915820e-01	2.53566820e-05	4.36914350e-05	1.36074070e-04	0.00000000e+00
19.625         	1.86746740e-01	2.54016190e-05	4.37230850e-05	1.93835160e-04	0.00000000e+00
19.63          	1.68571290e-01	2.54461660e-05	4.37540740e-05	1.94523660e-04	0.00000000e+00
19.635         	1.01160230e-01	2.54903200e-05	4.37843980e-05	1.23448830e-04	0.00000000e+00
19.64          	8.18387050e-02	2.55340910e-05	4.38140760e-05	1.70989210e-04	0.00000000e+00
19.645         	1.07151870e-01	2.55774680e-05	4.38430910e-05	1.66562120e-04	0.00000000e+00
19.65          	1.37919250e-01	2.56204610e-05	4.38714600e-05	1.15072200e-04	0.00000000e+00
19.655         	4.72628710e-01	2.56630620e-05	4.38991670e-05	1.25240360e-04	0.00000000e+00
19.66          	9.28996690e-02	2.57052760e-05	4.39262260e-05	2.30083680e-04	0.00000000e+00
19.665         	1.01571890e-01	2.57471050e-05	4.39526410e-05	1.68309770e-04	0.00000000e+00
19.67          	1.04114940e-01	2.57885460e-05	4.39784020e-05	1.28700270e-04	0.00000000e+00
19.675         	1.10321670e-01	2.58295980e-05	4.40035150e-05	1.23590500e-04	0.00000000e+00
19.68          	1.49048420e-01	2.58702600e-05	4.40279740e-05	1.66020320e-04	0.00000000e+00
19.685         	1.22018170e-01	2.59105380e-05	4.40517900e-05	1.08763250e-04	0.00000000e+00
19.69          	1.16702240e-01	2.59504290e-05	4.40749640e-05	8.73854770e-05	0.00000000e+00
19.695         	6.82799760e-02	2.59899340e-05	4.40974940e-05	8.24686160e-05	0.00000000e+00
19.7           	1.01200110e-01	2.60290540e-05	4.41193810e-05	1.51868470e-04	0.00000000e+00
19.705         	8.47434550e-02	2.60677870e-05	4.41406280e-05	1.36131790e-04	0.00000000e+00
19.71          	1.44508530e-01	2.61061350e-05	4.41612340e-05	1.21612720e-04	0.00000000e+00
19.715         	1.18005570e-01	2.61441010e-05	4.41812070e-05	1.89453690e-04	0.00000000e+00
19.72          	3.17094150e-01	2.61816770e-05	4.42005340e-05	1.42318090e-04	0.00000000e+00
19.725         	1.02590040e-01	2.62188730e-05	4.42192320e-05	1.31435810e-04	0.00000000e+00
19.73          	1.34389650e-01	2.62556800e-05	4.42372860e-05	1.01275060e-04	0.00000000e+00
19.735         	5.01507120e-01	2.62921070e-05	4.42547140e-05	1.65910610e-04	0.00000000e+00
19.74          	1.67502040e-01	2.63281460e-05	4.42715010e-05	1.40372460e-04	0.00000000e+00
19.745         	9.52558520e-02	2.63638070e-05	4.42876660e-05	1.58916430e-04	0.00000000e+00
19.75          	1.55933570e-01	2.63990820e-05	4.43031970e-05	1.45037330e-04	0.00000000e+00
19.755         	3.55467650e-01	2.64339710e-05	4.43180930e-05	1.13264210e-04	0.00000000e+00
19.76          	3.54761820e-01	2.64684830e-05	4.43323700e-05	1.08255920e-04	0.00000000e+00
19.765         	7.64072240e-02	2.65026080e-05	4.43460120e-05	1.64402950e-04	0.00000000e+00
19.77          	1.45074970e-01	2.65363560e-05	4.43590370e-05	1.91020890e-04	0.00000000e+00
19.775         	2.53537610e-01	2.65697170e-05	4.43714300e-05	1.84378090e-04	0.00000000e+00
19.78          	1.41469650e-01	2.66027020e-05	4.43832090e-05	1.82612170e-04	0.00000000e+00
19.785         	4.40945250e-01	2.66353020e-05	4.43943580e-05	2.21167080e-04	0.00000000e+00
19.79          	1.00220170e-01	2.66675260e-05	4.44048950e-05	2.36394150e-04	0.00000000e+00
19.795         	2.56353320e-01	2.66993680e-05	4.44148110e-05	1.95911490e-04	0.00000000e+00
19.8           	1.84582770e-01	2.67308270e-05	4.44241020e-05	1.87526530e-04	0.00000000e+00
19.805         	1.02180730e-01	2.67619080e-05	4.44327810e-05	2.69232590e-04	0.00000000e+00
19.81          	2.47378570e-01	2.67926110e-05	4.44408460e-05	2.05209460e-04	0.00000000e+00
19.815         	1.27470690e-01	2.68229360e-05	4.44482980e-05	2.19120960e-04	0.00000000e+00
19.82          	1.24224340e-01	2.68528860e-05	4.44551430e-05	1.84094510e-04	0.00000000e+00
19.825         	2.05500520e-01	2.68824520e-05	4.44613680e-05	2.06585980e-04	0.00000000e+00
19.83          	1.67898810e-01	2.69116450e-05	4.44669920e-05	1.61640650e-04	0.00000000e+00
19.835         	1.47310940e-01	2.69404570e-05	4.44719980e-05	1.75266310e-04	0.00000000e+00
19.84          	1.02179070e-01	2.69688930e-05	4.44764010e-05	1.67600090e-04	0.00000000e+00
19.845         	8.96788220e-02	2.69969540e-05	4.44801990e-05	2.42767150e-04	0.00000000e+00
19.85          	1.52731780e-01	2.70246420e-05	4.44833990e-05	1.81174210e-04	0.00000000e+00
19.855         	9.91021790e-02	2.70519490e-05	4.44859860e-05	2.01499580e-04	0.00000000e+00
19.86          	1.00650540e-01	2.70788850e-05	4.44879800e-05	2.27294030e-04	0.00000000e+00
19.865         	7.23826370e-02	2.71054460e-05	4.44893710e-05	2.80574300e-04	0.00000000e+00
19.87          	2.17100870e-01	2.71316310e-05	4.44901620e-05	1.51749200e-04	0.00000000e+00
19.875         	1.24224940e-01	2.71574430e-05	4.44903550e-05	1.65149020e-04	0.00000000e+00
19.88          	1.28031470e-01	2.71828810e-05	4.44899530e-05	1.53435790e-04	0.00000000e+00
19.885         	1.48992020e-01	2.72079450e-05	4.44889550e-05	1.69513470e-04	0.00000000e+00
19.89          	2.05872580e-01	2.72326380e-05	4.44873650e-05	1.53270020e-04	0.00000000e+00
19.895         	7.26018730e-02	2.72569580e-05	4.44851820e-05	1.70190230e-04	0.00000000e+00
19.9           	1.05076000e-01	2.72809060e-05	4.44824090e-05	1.60096310e-04	0.00000000e+00
19.905         	2.68351860e-01	2.73044830e-05	4.44790470e-05	1.23075300e-04	0.00000000e+00
19.91          	8.82910480e-02	2.73276860e-05	4.44750910e-05	1.31954930e-04	0.00000000e+00
19.915         	8.64047400e-02	2.73505250e-05	4.44705590e-05	1.44838480e-04	0.00000000e+00
19.92          	2.98943670e-01	2.73729880e-05	4.44654340e-05	1.51714920e-04	0.00000000e+00
19.925         	7.92455370e-02	2.73950870e-05	4.44597340e-05	1.33552470e-04	0.00000000e+00
19.93          	1.29255030e-01	2.74168160e-05	4.44534490e-05	1.38119280e-04	0.00000000e+00
19.935         	1.15940570e-01	2.74381720e-05	4.44465770e-05	2.03449100e-04	0.00000000e+00
19.94          	8.23278340e-02	2.74591660e-05	4.44391350e-05	1.48818640e-04	0.00000000e+00
19.945         	2.23936550e-01	2.74797900e-05	4.44311130e-05	1.57729740e-04	0.00000000e+00
19.95          	8.52858890e-02	2.75000470e-05	4.44225140e-05	1.95009230e-04	0.00000000e+00
19.955         	1.18213570e-01	2.75199340e-05	4.44133330e-05	1.89782540e-04	0.00000000e+00
19.96          	2.89318750e-01	2.75394570e-05	4.44035840e-05	1.53091980e-04	0.00000000e+00
19.965         	1.19254580e-01	2.75586190e-05	4.43932690e-05	1.66846510e-04	0.00000000e+00
19.97          	1.23419020e-01	2.75774100e-05	4.43823750e-05	1.06400670e-04	0.00000000e+00
19.975         	5.55708360e-02	2.75958380e-05	4.43709150e-05	1.90894230e-04	0.00000000e+00
19.98          	1.02530770e-01	2.76139030e-05	4.43588880e-05	1.17780650e-04	0.00000000e+00
19.985         	1.69218140e-01	2.76316070e-05	4.43463010e-05	1.19778020e-04	0.00000000e+00
19.99          	1.35879230e-01	2.76489470e-05	4.43331460e-05	7.74966670e-05	0.00000000e+00
19.995         	1.11794140e-01	2.76659190e-05	4.43194210e-05	1.09928090e-04	0.00000000e+00
20             	1.11541270e-01	2.76825350e-05	4.43051430e-05	1.03149350e-04	0.00000000e+00
20.005         	2.60713100e-01	2.76987850e-05	4.42902970e-05	6.24365040e-05	0.00000000e+00
20.01          	2.58382790e-01	2.77146790e-05	4.42749020e-05	7.32678970e-05	0.00000000e+00
20.015         	2.45697040e-01	2.77302070e-05	4.42589400e-05	1.15138650e-04	0.00000000e+00
20.02          	9.33278660e-02	2.77453810e-05	4.42424320e-05	8.46812260e-05	0.00000000e+00
20.025         	4.89382800e-02	2.77601900e-05	4.42253610e-05	7.95144860e-05	0.00000000e+00
20.03          	3.89314020e-01	2.77746430e-05	4.42077400e-05	1.12311020e-04	0.00000000e+00
20.035         	1.09004390e-01	2.77887400e-05	4.41895750e-05	9.18587930e-05	0.00000000e+00
20.04          	2.83214760e-01	2.78024750e-05	4.41708520e-05	8.55969970e-05	0.00000000e+00
20.045         	1.22417890e-01	2.78158540e-05	4.41515830e-05	6.59725030e-05	0.00000000e+00
20.05          	1.28000230e-01	2.78288780e-05	4.41317680e-05	4.93932960e-05	0.00000000e+00
20.055         	2.03192660e-01	2.78415450e-05	4.41114090e-05	9.01310640e-05	0.00000000e+00
20.06          	1.82720110e-01	2.78538570e-05	4.40905070e-05	6.54574900e-05	0.00000000e+00
20.065         	8.40139850e-02	2.78658140e-05	4.40690620e-05	7.76307890e-05	0.00000000e+00
20.07          	4.45106080e-01	2.78774200e-05	4.40470840e-05	5.35242670e-05	0.00000000e+00
20.075         	3.45094030e-01	2.78886670e-05	4.40245570e-05	7.88365070e-05	0.00000000e+00
20.08          	1.93058820e-01	2.78995660e-05	4.40015010e-05	1.05963800e-04	0.00000000e+00
20.085         	7.54919430e-02	2.79101110e-05	4.39779060e-05	1.21331630e-04	0.00000000e+00
20.09          	7.80452270e-02	2.79202990e-05	4.39537710e-05	8.90527710e-05	0.00000000e+00
20.095         	9.74908950e-02	2.79301380e-05	4.39291060e-05	8.53118580e-05	0.00000000e+00
20.1           	1.82958430e-01	2.79396280e-05	4.39039120e-05	7.85349570e-05	0.00000000e+00
20.105         	1.78705080e-01	2.79487670e-05	4.38781890e-05	1.35165540e-04	0.00000000e+00
20.11          	1.54484870e-01	2.79575600e-05	4.38519440e-05	5.57034540e-05	0.00000000e+00
20.115         	2.34365720e-01	2.79660020e-05	4.38251680e-05	5.28556110e-05	0.00000000e+00
20.12          	1.30267010e-01	2.79740920e-05	4.37978610e-05	5.60668670e-05	0.00000000e+00
20.125         	1.20052550e-01	2.79818390e-05	4.37700400e-05	8.92596580e-05	0.00000000e+00
20.13          	1.04053870e-01	2.79892380e-05	4.37416950e-05	1.43375330e-04	0.00000000e+00
20.135         	1.88175180e-01	2.79962890e-05	4.37128290e-05	8.43256830e-05	0.00000000e+00
20.14          	1.17988700e-01	2.80029910e-05	4.36834390e-05	1.16474960e-04	0.00000000e+00
20.145         	1.57368660e-01	2.80093500e-05	4.36535360e-05	8.20132290e-05	0.00000000e+00
20.15          	1.10788080e-01	2.80153660e-05	4.36231190e-05	1.08184860e-04	0.00000000e+00
20.155         	3.44168500e-01	2.80210370e-05	4.35921880e-05	6.89689380e-05	0.00000000e+00
20.16          	4.30019470e-01	2.80263650e-05	4.35607460e-05	4.79550420e-05	0.00000000e+00
20.165         	3.09282800e-01	2.80313550e-05	4.35287990e-05	8.46969270e-05	0.00000000e+00
20.17          	1.10963030e-01	2.80359960e-05	4.34963340e-05	6.13603430e-05	0.00000000e+00
20.175         	2.85710540e-01	2.80402970e-05	4.34633650e-05	6.98864110e-05	0.00000000e+00
20.18          	1.26489590e-01	2.80442590e-05	4.34298900e-05	9.29227580e-05	0.00000000e+00
20.185         	2.92018800e-01	2.80478800e-05	4.33959120e-05	7.35107660e-05	0.00000000e+00
20.19          	1.24353240e-01	2.80511620e-05	4.33614320e-05	6.96021660e-05	0.00000000e+00
20.195         	1.18462200e-01	2.80541050e-05	4.33264520e-05	8.04953160e-05	0.00000000e+00
20.2           	2.35794080e-01	2.80567100e-05	4.32909720e-05	9.75575110e-05	0.00000000e+00
20.205         	8.06815480e-02	2.80589780e-05	4.32549950e-05	1.01351160e-04	0.00000000e+00
20.21          	1.01518500e-01	2.80609090e-05	4.32185220e-05	8.91153920e-05	0.00000000e+00
20.215         	1.00828490e-01	2.80625040e-05	4.31815550e-05	1.10401680e-04	0.00000000e+00
20.22          	1.44878760e-01	2.80637670e-05	4.31441010e-05	6.85211750e-05	0.00000000e+00
20.225         	7.79841050e-02	2.80646890e-05	4.31061470e-05	1.33883350e-04	0.00000000e+00
20.23          	1.79523690e-01	2.80652790e-05	4.30677060e-05	7.25462600e-05	0.00000000e+00
20.235         	1.79084340e-01	2.80655360e-05	4.30287790e-05	7.74808180e-05	0.00000000e+00
20.24          	7.43748740e-02	2.80654600e-05	4.29893660e-05	1.43577480e-04	0.00000000e+00
20.245         	3.44432500e-01	2.80650560e-05	4.29494740e-05	6.39286360e-05	0.00000000e+00
20.25          	2.29545680e-01	2.80643150e-05	4.29090900e-05	5.84617970e-05	0.00000000e+00
20.255         	1.60604570e-01	2.80632490e-05	4.28682340e-05	9.60319210e-05	0.00000000e+00
20.26          	9.49801980e-02	2.80618470e-05	4.28268890e-05	8.68999100e-05	0.00000000e+00
20.265         	1.22818530e-01	2.80601180e-05	4.27850700e-05	7.95695990e-05	0.00000000e+00
20.27          	9.74399040e-02	2.80580640e-05	4.27427810e-05	6.69623460e-05	0.00000000e+00
20.275         	2.19910080e-01	2.80556810e-05	4.27000150e-05	8.03642930e-05	0.00000000e+00
20.28          	1.85712730e-01	2.80529690e-05	4.26567740e-05	3.38803810e-05	0.00000000e+00
20.285         	1.45875640e-01	2.80499310e-05	4.26130630e-05	1.01719610e-04	0.00000000e+00
20.29          	8.23642400e-02	2.80465680e-05	4.25688820e-05	8.38368360e-05	0.00000000e+00
20.295         	1.76887710e-01	2.80428790e-05	4.25242330e-05	7.49991110e-05	0.00000000e+00
20.3           	1.05986260e-01	2.80388630e-05	4.24791130e-05	6.21481000e-05	0.00000000e+00
20.305         	8.48020450e-02	2.80345290e-05	4.24335370e-05	9.07462360e-05	0.00000000e+00
20.31          	1.13247040e-01	2.80298710e-05	4.23874970e-05	7.18549930e-05	0.00000000e+00
20.315         	8.46444930e-02	2.80248900e-05	4.23409950e-05	8.12939960e-05	0.00000000e+00
20.32          	1.05938500e-01	2.80195880e-05	4.22940330e-05	1.28465770e-04	0.00000000e+00
20.325         	7.94818110e-02	2.80139620e-05	4.22466080e-05	8.89427410e-05	0.00000000e+00
20.33          	7.93406070e-02	2.80080190e-05	4.21987310e-05	1.28829340e-04	0.00000000e+00
20.335         	1.20796320e-01	2.80017600e-05	4.21504070e-05	1.56248770e-04	0.00000000e+00
20.34          	1.42816260e-01	2.79951780e-05	4.21016210e-05	1.49130440e-04	0.00000000e+00
20.345         	7.54359000e-02	2.79882840e-05	4.20523930e-05	1.01807790e-04	0.00000000e+00
20.35          	1.42669770e-01	2.79810710e-05	4.20027130e-05	1.11025710e-04	0.00000000e+00
20.355         	1.72385300e-01	2.79735410e-05	4.19525840e-05	1.34751890e-04	0.00000000e+00
20.36          	1.27322490e-01	2.79656960e-05	4.19020100e-05	1.00246500e-04	0.00000000e+00
20.365         	2.65834110e-01	2.79575360e-05	4.18509910e-05	1.18954710e-04	0.00000000e+00
20.37          	1.30820570e-01	2.79490620e-05	4.17995300e-05	1.32034000e-04	0.00000000e+00
20.375         	1.19736270e-01	2.79402760e-05	4.17476290e-05	1.35812680e-04	0.00000000e+00
20.38          	7.65439200e-02	2.79311770e-05	4.16952880e-05	1.11815770e-04	0.00000000e+00
20.385         	3.46120920e-01	2.79217630e-05	4.16425050e-05	1.85859030e-04	0.00000000e+00
20.39          	2.22302000e-01	2.79120410e-05	4.15892910e-05	2.16957910e-04	0.00000000e+00
20.395         	1.86937560e-01	2.79020100e-05	4.15356430e-05	1.42467970e-04	0.00000000e+00
20.4           	9.62487220e-02	2.78916700e-05	4.14815650e-05	2.14382650e-04	0.00000000e+00
20.405         	1.96852060e-01	2.78810250e-05	4.14270610e-05	1.69644570e-04	0.00000000e+00
20.41          	1.61638730e-01	2.78700670e-05	4.13721200e-05	1.61765440e-04	0.00000000e+00
20.415         	1.16811680e-01	2.78588080e-05	4.13167600e-05	1.29625470e-04	0.00000000e+00
20.42          	1.68383030e-01	2.78472370e-05	4.12609660e-05	1.42520450e-04	0.00000000e+00
20.425         	6.36275480e-01	2.78353620e-05	4.12047520e-05	1.56175070e-04	0.00000000e+00
20.43          	1.49215690e-01	2.78231870e-05	4.11481230e-05	1.90258920e-04	0.00000000e+00
20.435         	1.21106020e-01	2.78107030e-05	4.10910650e-05	1.94585910e-04	0.00000000e+00
20.44          	8.94619020e-02	2.77979180e-05	4.10335910e-05	1.88950920e-04	0.00000000e+00
20.445         	1.33185360e-01	2.77848320e-05	4.09757010e-05	1.72019980e-04	0.00000000e+00
20.45          	9.13305990e-02	2.77714470e-05	4.09174030e-05	2.03618860e-04	0.00000000e+00
20.455         	9.51243590e-02	2.77577570e-05	4.08586820e-05	1.71066740e-04	0.00000000e+00
20.46          	1.52110260e-01	2.77437690e-05	4.07995530e-05	1.92957480e-04	0.00000000e+00
20.465         	1.81331640e-01	2.77294820e-05	4.07400150e-05	1.80759250e-04	0.00000000e+00
20.47          	2.64514360e-01	2.77149010e-05	4.06800750e-05	1.55641510e-04	0.00000000e+00
20.475         	9.01166380e-02	2.77000180e-05	4.06197190e-05	2.41144290e-04	0.00000000e+00
20.48          	1.12575230e-01	2.76848430e-05	4.05589680e-05	1.92329960e-04	0.00000000e+00
20.485         	1.38855020e-01	2.76693700e-05	4.04978110e-05	2.34658130e-04	0.00000000e+00
20.49          	1.71476030e-01	2.76536000e-05	4.04362460e-05	2.10633410e-04	0.00000000e+00
20.495         	1.37115200e-01	2.76375400e-05	4.03742920e-05	1.72661080e-04	0.00000000e+00
20.5           	9.41210510e-02	2.76211830e-05	4.03119320e-05	2.10682370e-04	0.00000000e+00
20.505         	1.40845150e-01	2.76045350e-05	4.02491790e-05	1.90619420e-04	0.00000000e+00
20.51          	2.13649520e-01	2.75876000e-05	4.01860380e-05	2.70967360e-04	0.00000000e+00
20.515         	1.81732020e-01	2.75703720e-05	4.01225030e-05	2.65259490e-04	0.00000000e+00
20.52          	1.67198010e-01	2.75528510e-05	4.00585700e-05	1.82387020e-04	0.00000000e+00
20.525         	8.60143550e-02	2.75350420e-05	3.99942520e-05	1.97354470e-04	0.00000000e+00
20.53          	2.51472200e-01	2.75169470e-05	3.99295480e-05	2.15385790e-04	0.00000000e+00
20.535         	5.09592520e-01	2.74985670e-05	3.98644650e-05	2.10698580e-04	0.00000000e+00
20.54          	1.20217880e-01	2.74798960e-05	3.97989890e-05	1.42250620e-04	0.00000000e+00
20.545         	4.81820840e-01	2.74609440e-05	3.97331400e-05	1.72714130e-04	0.00000000e+00
20.55          	9.30413650e-02	2.74417030e-05	3.96669030e-05	2.02130430e-04	0.00000000e+00
20.555         	1.30019280e-01	2.74221790e-05	3.96002900e-05	2.19109290e-04	0.00000000e+00
20.56          	7.78415150e-02	2.74023730e-05	3.95333020e-05	2.10849280e-04	0.00000000e+00
20.565         	1.78656880e-01	2.73822850e-05	3.94659390e-05	1.69314080e-04	0.00000000e+00
20.57          	9.46155990e-02	2.73619160e-05	3.93982040e-05	1.74668510e-04	0.00000000e+00
20.575         	5.62377110e-01	2.73412700e-05	3.93301030e-05	2.29244570e-04	0.00000000e+00
20.58          	1.88074870e-01	2.73203420e-05	3.92616290e-05	2.93900840e-04	0.00000000e+00
20.585         	2.81248150e-01	2.72991340e-05	3.91927860e-05	2.02615290e-04	0.00000000e+00
20.59          	2.02068630e-01	2.72776490e-05	3.91235770e-05	1.62975110e-04	0.00000000e+00
20.595         	1.14550080e-01	2.72558830e-05	3.90539990e-05	1.83154760e-04	0.00000000e+00
20.6           	1.72497530e-01	2.72338470e-05	3.89840670e-05	2.31106070e-04	0.00000000e+00
20.605         	1.71912880e-01	2.72115340e-05	3.89137730e-05	2.30661510e-04	0.00000000e+00
20.61          	1.03812550e-01	2.71889430e-05	3.88431130e-05	1.96650290e-04	0.00000000e+00
20.615         	1.02631070e-01	2.71660810e-05	3.87721000e-05	2.05932170e-04	0.00000000e+00
20.62          	1.10071850e-01	2.71429460e-05	3.87007330e-05	2.43515350e-04	0.00000000e+00
20.625         	9.30964330e-02	2.71195440e-05	3.86290170e-05	2.10280600e-04	0.00000000e+00
20.63          	1.26234440e-01	2.70958650e-05	3.85569420e-05	1.66813210e-04	0.00000000e+00
20.635         	3.35107780e-01	2.70719210e-05	3.84845240e-05	1.41449350e-04	0.00000000e+00
20.64          	1.06399800e-01	2.70477070e-05	3.84117550e-05	1.97712760e-04	0.00000000e+00
20.645         	1.73532170e-01	2.70232200e-05	3.83386340e-05	1.56985940e-04	0.00000000e+00
20.65          	4.21717800e-01	2.69984680e-05	3.82651710e-05	1.46957030e-04	0.00000000e+00
20.655         	1.39063190e-01	2.69734530e-05	3.81913720e-05	1.49147580e-04	0.00000000e+00
20.66          	1.21433610e-01	2.69481680e-05	3.81172230e-05	2.36072170e-04	0.00000000e+00
20.665         	3.26866450e-01	2.69226200e-05	3.80427380e-05	1.46268420e-04	0.00000000e+00
20.67          	1.37467710e-01	2.68968120e-05	3.79679200e-05	1.48731940e-04	0.00000000e+00
20.675         	2.05659280e-01	2.68707390e-05	3.78927640e-05	1.23676510e-04	0.00000000e+00
20.68          	2.52430500e-01	2.68444030e-05	3.78172720e-05	1.38424620e-04	0.00000000e+00
20.685         	1.03017650e-01	2.68178060e-05	3.77414490e-05	1.88643470e-04	0.00000000e+00
20.69          	2.38980670e-01	2.67909490e-05	3.76652940e-05	1.78752220e-04	0.00000000e+00
20.695         	1.01391130e-01	2.67638290e-05	3.75888060e-05	1.59969280e-04	0.00000000e+00
20.7           	1.01608940e-01	2.67364530e-05	3.75119940e-05	1.70321900e-04	0.00000000e+00
20.705         	7.68919930e-02	2.67088240e-05	3.74348630e-05	2.13473350e-04	0.00000000e+00
20.71          	3.49347190e-01	2.66809320e-05	3.73574000e-05	1.21176600e-04	0.00000000e+00
20.715         	4.25571910e-01	2.66527900e-05	3.72796240e-05	1.09627820e-04	0.00000000e+00
20.72          	7.76250430e-02	2.66243920e-05	3.72015240e-05	6.39647110e-05	0.00000000e+00
20.725         	9.47708060e-02	2.65957390e-05	3.71231060e-05	5.79155140e-05	0.00000000e+00
20.73          	1.13788110e-01	2.65668300e-05	3.70443670e-05	9.68395390e-05	0.00000000e+00
20.735         	2.10246490e-01	2.65376710e-05	3.69653160e-05	5.98156560e-05	0.00000000e+00
20.74          	1.40599370e-01	2.65082650e-05	3.68859580e-05	1.41538560e-04	0.00000000e+00
20.745         	1.62353470e-01	2.64786040e-05	3.68062810e-05	5.53490350e-05	0.00000000e+00
20.75          	2.10287750e-01	2.64486980e-05	3.67263020e-05	1.16351260e-04	0.00000000e+00
20.755         	3.79245680e-01	2.64185380e-05	3.66460090e-05	9.81244980e-05	0.00000000e+00
20.76          	9.04247900e-02	2.63881330e-05	3.65654120e-05	1.15582660e-04	0.00000000e+00
20.765         	1.12024520e-01	2.63574820e-05	3.64845120e-05	1.30679920e-04	0.00000000e+00
20.77          	1.31010320e-01	2.63265860e-05	3.64033100e-05	1.32953740e-04	0.00000000e+00
20.775         	1.10755160e-01	2.62954480e-05	3.63218120e-05	1.28546330e-04	0.00000000e+00
20.78          	2.16179460e-01	2.62640650e-05	3.62400130e-05	1.79279460e-04	0.00000000e+00
20.785         	3.68967090e-01	2.62324340e-05	3.61579110e-05	1.61198660e-04	0.00000000e+00
20.79          	1.81474600e-01	2.62005670e-05	3.60755210e-05	1.97235530e-04	0.00000000e+00
20.795         	1.01616340e-01	2.61684580e-05	3.59928360e-05	2.49800280e-04	0.00000000e+00
20.8           	1.78065320e-01	2.61361050e-05	3.59098540e-05	1.79111380e-04	0.00000000e+00
20.805         	1.26326500e-01	2.61035170e-05	3.58265890e-05	1.97794330e-04	0.00000000e+00
20.81          	3.99805530e-01	2.60706870e-05	3.57430300e-05	1.53640420e-04	0.00000000e+00
20.815         	6.15722560e-02	2.60376220e-05	3.56591870e-05	1.60485910e-04	0.00000000e+00
20.82          	1.22851820e-01	2.60043210e-05	3.55750600e-05	1.96801190e-04	0.00000000e+00
20.825         	1.50853790e-01	2.59707840e-05	3.54906500e-05	2.12675620e-04	0.00000000e+00
20.83          	1.10919590e-01	2.59370160e-05	3.54059650e-05	1.66607520e-04	0.00000000e+00
20.835         	1.03653760e-01	2.59030100e-05	3.53209920e-05	1.93667640e-04	0.00000000e+00
20.84          	1.93857930e-01	2.58687760e-05	3.52357490e-05	1.51286750e-04	0.00000000e+00
20.845         	7.76670050e-02	2.58343080e-05	3.51502270e-05	1.51928380e-04	0.00000000e+00
20.85          	2.31971840e-01	2.57996060e-05	3.50644270e-05	2.09120940e-04	0.00000000e+00
20.855         	1.92689500e-01	2.57646790e-05	3.49783610e-05	1.80199980e-04	0.00000000e+00
20.86          	1.86205760e-01	2.57295190e-05	3.48920180e-05	2.04668920e-04	0.00000000e+00
20.865         	1.30946370e-01	2.56941360e-05	3.48054140e-05	2.35545080e-04	0.00000000e+00
20.87          	1.08986380e-01	2.56585220e-05	3.47185360e-05	1.62525400e-04	0.00000000e+00
20.875         	7.05805550e-02	2.56226830e-05	3.46313950e-05	1.72657710e-04	0.00000000e+00
20.88          	1.01374310e-01	2.55866220e-05	3.45439960e-05	2.12168090e-04	0.00000000e+00
20.885         	1.06632660e-01	2.55503330e-05	3.44563280e-05	2.47864280e-04	0.00000000e+00
20.89          	1.26152260e-01	2.55138250e-05	3.43684070e-05	2.43644790e-04	0.00000000e+00
20.895         	8.51564940e-02	2.54770930e-05	3.42802250e-05	2.34009430e-04	0.00000000e+00
20.9           	1.13227040e-01	2.54401400e-05	3.41917870e-05	2.32672910e-04	0.00000000e+00
20.905         	3.78248720e-01	2.54029660e-05	3.41030930e-05	2.39925500e-04	0.00000000e+00
20.91          	1.43248980e-01	2.53655720e-05	3.40141470e-05	2.18956620e-04	0.00000000e+00
20.915         	6.09564880e-02	2.53279610e-05	3.39249490e-05	1.90096700e-04	0.00000000e+00
20.92          	7.69980980e-02	2.52901320e-05	3.38355020e-05	2.73937660e-04	0.00000000e+00
20.925         	2.66616720e-01	2.52520860e-05	3.37458080e-05	2.51852730e-04	0.00000000e+00
20.93          	8.25827490e-02	2.52138220e-05	3.36558630e-05	2.21413540e-04	0.00000000e+00
20.935         	4.78503200e-01	2.51753490e-05	3.35656820e-05	2.11408120e-04	0.00000000e+00
20.94          	1.33449400e-01	2.51366610e-05	3.34752560e-05	2.18186410e-04	0.00000000e+00
20.945         	2.01165180e-01	2.50977560e-05	3.33845850e-05	2.10727550e-04	0.00000000e+00
20.95          	1.67259130e-01	2.50586420e-05	3.32936770e-05	2.39519090e-04	0.00000000e+00
20.955         	6.56773550e-02	2.50193180e-05	3.32025340e-05	2.23394100e-04	0.00000000e+00
20.96          	2.98068660e-01	2.49797840e-05	3.31111550e-05	2.12433620e-04	0.00000000e+00
20.965         	1.10403220e-01	2.49400450e-05	3.30195470e-05	2.51989140e-04	0.00000000e+00
20.97          	1.72598270e-01	2.49000930e-05	3.29277000e-05	2.04405300e-04	0.00000000e+00
20.975         	1.00954770e-01	2.48599380e-05	3.28356300e-05	3.00060530e-04	0.00000000e+00
20.98          	2.51773840e-01	2.48195730e-05	3.27433240e-05	2.77691720e-04	0.00000000e+00
20.985         	2.99162350e-01	2.47790050e-05	3.26507940e-05	2.65598310e-04	0.00000000e+00
20.99          	1.48354550e-01	2.47382360e-05	3.25580440e-05	2.38515240e-04	0.00000000e+00
20.995         	4.18396370e-01	2.46972620e-05	3.24650690e-05	2.25671730e-04	0.00000000e+00
21             	1.28021430e-01	2.46560830e-05	3.23718660e-05	2.46003150e-04	0.00000000e+00
21.005         	2.86607660e-01	2.46147070e-05	3.22784510e-05	2.03911920e-04	0.00000000e+00
21.01          	2.16381210e-01	2.45731300e-05	3.21848160e-05	2.75457290e-04	0.00000000e+00
21.015         	1.51076470e-01	2.45313500e-05	3.20909600e-05	3.00128570e-04	0.00000000e+00
21.02          	2.37683750e-01	2.44893740e-05	3.19968920e-05	2.62887470e-04	0.00000000e+00
21.025         	1.41902820e-01	2.44472020e-05	3.19026120e-05	2.61271240e-04	0.00000000e+00
21.03          	1.25425380e-01	2.44048360e-05	3.18081260e-05	2.60185020e-04	0.00000000e+00
21.035         	1.78345770e-01	2.43622710e-05	3.17134230e-05	2.37031770e-04	0.00000000e+00
21.04          	2.96855500e-01	2.43195150e-05	3.16185190e-05	2.33227540e-04	0.00000000e+00
